 vasp.5.3.5 31Mar14 (build Feb 01 2018 12:10:03) gamma-only

 executed on             LinuxIFC date 2019.03.24  21:00:09

 INCAR:
 POTCAR:    PAW_PBE Ag 02Apr2005
 POTCAR:    PAW_PBE Ag 02Apr2005
   VRHFIN =Ag : s1 d10

   TITEL  = PAW_PBE Ag 02Apr2005
   POMASS =  107.868; ZVAL   =   11.000    mass and valenz
   ENMAX  =  249.844; ENMIN  =  187.383 eV

  PAW_PBE Ag 02Apr2005                  :

 POSCAR: Ti49, -328.58748286 <s> Ag </s>
  positions in direct lattice
 exchange correlation table for  LEXCH =        8
   RHO(1)=    0.500       N(1)  =     2000
   RHO(2)=  100.500       N(2)  =     4000

 ion  position               nearest neighbor table
   1  0.683  0.523  0.681-   6 2.57   5 2.62   7 2.70   3 2.72   8 2.75   2 2.85
   2  0.672  0.603  0.585-  14 2.77   8 2.78   1 2.85   3 2.85  12 2.93  10 2.98   4 3.00   6 3.15
                            20 3.28
   3  0.699  0.481  0.571-  11 2.70   1 2.72   5 2.74   4 2.75  14 2.80   2 2.85   9 2.85   8 2.88

   4  0.739  0.554  0.482-  12 2.54  14 2.61   9 2.66  13 2.74   3 2.75   2 3.00
   5  0.642  0.419  0.656-   7 2.60   1 2.62  15 2.69   3 2.74   8 2.84  11 2.85
   6  0.600  0.596  0.703-  10 2.56   1 2.57   7 2.65   8 2.74  16 2.83   2 3.15
   7  0.581  0.484  0.728-   5 2.60   6 2.65   1 2.70  16 2.74   8 2.80  15 2.82
   8  0.585  0.521  0.611-   6 2.74   1 2.75  16 2.78   2 2.78   7 2.80  15 2.82   5 2.84   3 2.88
                            14 2.89  10 3.05  17 3.13  11 3.14  27 3.21  20 3.55
   9  0.689  0.454  0.449-  18 2.62  14 2.64   4 2.66  11 2.81  13 2.83   3 2.85
  10  0.554  0.651  0.616-   6 2.56  20 2.68  24 2.71  22 2.80  27 2.89   2 2.98   8 3.05  16 3.19
                            21 3.45
  11  0.612  0.408  0.535-  17 2.63   3 2.70  31 2.71   9 2.81   5 2.85  28 3.01  15 3.13   8 3.14
                            14 3.18  18 3.44
  12  0.685  0.650  0.466-   4 2.54  19 2.54  13 2.80  21 2.89  14 2.89   2 2.93  20 3.02
  13  0.667  0.558  0.386-  14 2.63   4 2.74  19 2.79  12 2.80   9 2.83  18 2.94  25 3.31
  14  0.625  0.541  0.492-  20 2.50   4 2.61  13 2.63   9 2.64  17 2.73   2 2.77   3 2.80   8 2.89
                            12 2.89  18 3.06  25 3.10  11 3.18
  15  0.525  0.417  0.641-   5 2.69  35 2.70  31 2.72  23 2.79  32 2.82   7 2.82   8 2.82  11 3.13
                            16 3.18  17 3.55
  16  0.489  0.545  0.681-  24 2.73  23 2.73   7 2.74   8 2.78  29 2.79  27 2.81   6 2.83  35 3.10
                            15 3.18  10 3.19
  17  0.526  0.474  0.496-  11 2.63  14 2.73  18 2.75  30 2.80  35 2.86  38 2.89  25 2.89  31 2.94
                            27 3.12   8 3.13  28 3.48  15 3.55  20 3.58
  18  0.588  0.457  0.394-   9 2.62  34 2.63  17 2.75  25 2.84  28 2.88  30 2.93  13 2.94  39 3.02
                            14 3.06  11 3.44
  19  0.602  0.662  0.392-  26 2.49  12 2.54  21 2.74  20 2.76  13 2.79  25 2.89
  20  0.559  0.628  0.500-  21 2.42  14 2.50  10 2.68  26 2.71  25 2.74  22 2.75  19 2.76  27 2.83
                            12 3.02   2 3.28  37 3.34   8 3.55  17 3.58
  21  0.589  0.729  0.491-  20 2.42  19 2.74  26 2.77  12 2.89  22 3.05  10 3.45
  22  0.469  0.697  0.541-  20 2.75  36 2.78  27 2.79  10 2.80  37 2.81  24 2.83  26 2.88  21 3.05

  23  0.421  0.448  0.697-  35 2.66  32 2.68  16 2.73  33 2.78  15 2.79  29 2.85
  24  0.441  0.651  0.653-  36 2.69  27 2.70  10 2.71  16 2.73  29 2.78  22 2.83
  25  0.523  0.563  0.405-  20 2.74  40 2.77  39 2.78  18 2.84  19 2.89  17 2.89  38 2.95  26 2.96
                            37 2.98  14 3.10  13 3.31
  26  0.499  0.690  0.418-  19 2.49  37 2.66  20 2.71  21 2.77  22 2.88  25 2.96  40 3.50
  27  0.465  0.577  0.564-  35 2.60  24 2.70  36 2.71  37 2.75  22 2.79  16 2.81  20 2.83  10 2.89
                            29 2.94  17 3.12  43 3.15   8 3.21  38 3.47
  28  0.562  0.339  0.434-  30 2.65  31 2.76  34 2.78  42 2.85  18 2.88  11 3.01  41 3.02  17 3.48

  29  0.371  0.552  0.649-  36 2.77  24 2.78  16 2.79  35 2.84  43 2.84  23 2.85  33 2.88  27 2.94

  30  0.470  0.406  0.410-  38 2.62  28 2.65  42 2.67  47 2.69  34 2.71  46 2.78  41 2.79  17 2.80
                            39 2.87  18 2.93  44 3.12  31 3.31  49 3.35
  31  0.507  0.355  0.540-  41 2.53  11 2.71  15 2.72  32 2.74  28 2.76  17 2.94  44 3.17  35 3.20
                            30 3.31
  32  0.418  0.358  0.621-  33 2.68  23 2.68  35 2.68  31 2.74  15 2.82  44 2.83
  33  0.330  0.437  0.616-  35 2.61  32 2.68  23 2.78  44 2.80  43 2.83  29 2.88
  34  0.544  0.380  0.320-  46 2.61  18 2.63  42 2.64  30 2.71  28 2.78  39 2.82
  35  0.435  0.468  0.583-  27 2.60  33 2.61  23 2.66  32 2.68  15 2.70  44 2.70  43 2.80  29 2.84
                            17 2.86  16 3.10  31 3.20  38 3.34
  36  0.364  0.639  0.565-  24 2.69  27 2.71  37 2.72  43 2.74  29 2.77  22 2.78
  37  0.418  0.618  0.461-  26 2.66  38 2.68  40 2.69  36 2.72  27 2.75  22 2.81  45 2.83  25 2.98
                            43 3.17  20 3.34
  38  0.415  0.502  0.441-  30 2.62  45 2.65  37 2.68  43 2.69  40 2.77  48 2.78  49 2.78  17 2.89
                            25 2.95  44 3.01  39 3.30  35 3.34  27 3.47
  39  0.485  0.489  0.316-  46 2.68  40 2.71  25 2.78  34 2.82  30 2.87  49 2.88  18 3.02  38 3.30

  40  0.417  0.581  0.349-  45 2.66  37 2.69  39 2.71  25 2.77  38 2.77  49 2.79  26 3.50
  41  0.440  0.303  0.468-  31 2.53  42 2.56  44 2.70  47 2.79  30 2.79  28 3.02
  42  0.469  0.301  0.360-  41 2.56  46 2.58  34 2.64  30 2.67  47 2.85  28 2.85
  43  0.341  0.526  0.530-  38 2.69  36 2.74  35 2.80  48 2.80  33 2.83  29 2.84  45 2.89  44 3.13
                            27 3.15  37 3.17
  44  0.377  0.395  0.510-  35 2.70  48 2.70  41 2.70  33 2.80  32 2.83  47 2.84  38 3.01  30 3.12
                            43 3.13  31 3.17
  45  0.320  0.562  0.410-  48 2.57  38 2.65  40 2.66  37 2.83  49 2.83  43 2.89
  46  0.432  0.386  0.296-  42 2.58  34 2.61  39 2.68  49 2.69  47 2.74  30 2.78
  47  0.363  0.359  0.391-  30 2.69  46 2.74  41 2.79  48 2.79  44 2.84  42 2.85  49 2.86
  48  0.302  0.454  0.439-  45 2.57  44 2.70  49 2.75  38 2.78  47 2.79  43 2.80
  49  0.362  0.472  0.335-  46 2.69  48 2.75  38 2.78  40 2.79  45 2.83  47 2.86  39 2.88  30 3.35

  LATTYP: Found a simple cubic cell.
 ALAT       =    22.7715795030

  Lattice vectors:

 A1 = (  22.7715795030,   0.0000000000,   0.0000000000)
 A2 = (   0.0000000000,  22.7715795030,   0.0000000000)
 A3 = (   0.0000000000,   0.0000000000,  22.7715795030)

Analysis of symmetry for initial positions (statically):
 Subroutine PRICEL returns:
 Original cell was already a primitive cell.

 Routine SETGRP: Setting up the symmetry group for a
 simple cubic supercell.

 Subroutine GETGRP returns: Found  1 space group operations
 (whereof  1 operations were pure point group operations)
 out of a pool of 48 trial point group operations.

The static configuration has the point symmetry C_1 .

Analysis of symmetry for dynamics (positions and initial velocities):
 Subroutine PRICEL returns:
 Original cell was already a primitive cell.

 Routine SETGRP: Setting up the symmetry group for a
 simple cubic supercell.

 Subroutine GETGRP returns: Found  1 space group operations
 (whereof  1 operations were pure point group operations)
 out of a pool of 48 trial point group operations.

The dynamic configuration has the point symmetry C_1 .

Analysis of magnetic symmetry:
 Subroutine PRICEL returns:
 Original cell was already a primitive cell.

 Subroutine MAGSYM returns: Found  1 space group operations
 (whereof  1 operations were pure point group operations)
 out of a pool of  1 trial space group operations
 (whereof  1 operations were pure point group operations)
 and found also     1 'primitive' translations

The magnetic configuration has the point symmetry C_1 .

 KPOINTS: Gamma-point only
  k-points in reciprocal lattice
Space group operators:
 irot       det(A)        alpha          n_x          n_y          n_z        tau_x        tau_y        tau_z
    1     1.000000     0.000001     1.000000     0.000000     0.000000     0.000000     0.000000     0.000000

 I would recommend the setting:
   dimension x,y,z NGX =    88 NGY =   88 NGZ =   88
 SYSTEM =  unknown system
 POSCAR =  Ti49, -328.58748286 <s> Ag </s>

 Startparameter for this run:
   NWRITE =      2    write-flag & timer
   PREC   = normal    normal or accurate (medium, high low for compatibility)
   ISTART =      0    job   : 0-new  1-cont  2-samecut
   ICHARG =      2    charge: 1-file 2-atom 10-const
   ISPIN  =      2    spin polarized calculation?
   LNONCOLLINEAR =      F non collinear calculations
   LSORBIT =      F    spin-orbit coupling
   INIWAV =      1    electr: 0-lowe 1-rand  2-diag
   LASPH  =      F    aspherical Exc in radial PAW
   METAGGA=      F    non-selfconsistent MetaGGA calc.

 Electronic Relaxation 1
   ENCUT  =  249.8 eV  18.36 Ry    4.29 a.u.  29.35 29.35 29.35*2*pi/ulx,y,z
   ENINI  =  249.8     initial cutoff
   ENAUG  =  412.5 eV  augmentation charge cutoff
   NELM   =     60;   NELMIN=  2; NELMDL= -5     # of ELM steps
   EDIFF  = 0.1E-03   stopping-criterion for ELM
   LREAL  =      F    real-space projection
   NLSPLINE    = F    spline interpolate recip. space projectors
   LCOMPAT=      F    compatible to vasp.4.4
   GGA_COMPAT  = T    GGA compatible to vasp.4.4-vasp.4.6
   LMAXPAW     = -100 max onsite density
   LMAXMIX     =    2 max onsite mixed and CHGCAR
   VOSKOWN=      0    Vosko Wilk Nusair interpolation
   ROPT   =    0.00000
 Ionic relaxation
   EDIFFG = 0.1E-02   stopping-criterion for IOM
   NSW    =   1000    number of steps for IOM
   NBLOCK =      1;   KBLOCK =   1000    inner block; outer block
   IBRION =      2    ionic relax: 0-MD 1-quasi-New 2-CG
   NFREE  =      1    steps in history (QN), initial steepest desc. (CG)
   ISIF   =      2    stress and relaxation
   IWAVPR =     11    prediction:  0-non 1-charg 2-wave 3-comb
   ISYM   =      2    0-nonsym 1-usesym 2-fastsym
   LCORR  =      T    Harris-Foulkes like correction to forces

   POTIM  = 0.1000    time-step for ionic-motion
   TEIN   =    0.0    initial temperature
   TEBEG  =    0.0;   TEEND  =   0.0 temperature during run
   SMASS  =  -3.00    Nose mass-parameter (am)
   estimated Nose-frequenzy (Omega)   =  0.10E-29 period in steps =****** mass=  -0.119E-25a.u.
   SCALEE = 1.0000    scale energy and forces
   NPACO  =    256;   APACO  = 16.0  distance and # of slots for P.C.
   PSTRESS=    0.0 pullay stress

  Mass of Ions in am
   POMASS = 107.87
  Ionic Valenz
   ZVAL   =  11.00
  Atomic Wigner-Seitz radii
  virtual crystal weights
   VCA    =   1.00
   NELECT =     539.0000    total number of electrons
   NUPDOWN=      -1.0000    fix difference up-down

 DOS related values:
   EMIN   =  10.00;   EMAX   =-10.00  energy-range for DOS
   EFERMI =   0.00
   ISMEAR =     0;   SIGMA  =   0.00  broadening in eV -4-tet -1-fermi 0-gaus

 Electronic relaxation 2 (details)
   IALGO  =     38    algorithm
   LDIAG  =      T    sub-space diagonalisation (order eigenvalues)
   LSUBROT=      F    optimize rotation matrix (better conditioning)
   TURBO    =      0    0=normal 1=particle mesh
   IRESTART =      0    0=no restart 2=restart with 2 vectors
[...]
       1 -81.8092       2 -81.8601       3 -81.9870       4 -82.0335       5 -81.9128
       6 -81.8067       7 -81.9473       8 -82.1600       9 -82.0496      10 -81.8678
      11 -82.1970      12 -82.1677      13 -82.1272      14 -82.4361      15 -82.1090
      16 -82.1823      17 -82.2435      18 -82.0960      19 -82.0500      20 -82.3902
      21 -81.9988      22 -82.1840      23 -81.9656      24 -81.8403      25 -82.0315
      26 -81.9352      27 -82.3270      28 -81.8666      29 -82.0967      30 -82.2868
      31 -82.1023      32 -82.0941      33 -81.9709      34 -81.9238      35 -82.2580
      36 -81.9107      37 -82.2281      38 -82.3057      39 -82.0545      40 -81.9856
      41 -81.9129      42 -81.9815      43 -82.0912      44 -82.1384      45 -81.9948
      46 -81.8454      47 -81.9893      48 -81.8697      49 -81.8236

 E-fermi :  -3.2247     XC(G=0):  -1.4028     alpha+bet : -0.9525

[...]

 spin component 2

 k-point     1 :       0.0000    0.0000    0.0000
  band No.  band energies     occupation
      1      -9.6328      1.00000
      2      -9.1335      1.00000
      3      -9.1204      1.00000
      4      -9.0578      1.00000
      5      -8.9855      1.00000
      6      -8.9626      1.00000
      7      -8.9172      1.00000
      8      -8.8889      1.00000
      9      -8.8522      1.00000
     10      -8.8477      1.00000
     11      -8.8123      1.00000
     12      -8.7935      1.00000
     13      -8.7836      1.00000
     14      -8.7748      1.00000
     15      -8.7651      1.00000
     16      -8.7350      1.00000
     17      -8.7025      1.00000
     18      -8.6827      1.00000
     19      -8.6710      1.00000
     20      -8.6399      1.00000
     21      -8.6324      1.00000
     22      -8.6258      1.00000
     23      -8.6013      1.00000
     24      -8.5850      1.00000
     25      -8.5679      1.00000
     26      -8.5414      1.00000
     27      -8.5245      1.00000
     28      -8.5099      1.00000
     29      -8.4951      1.00000
     30      -8.4826      1.00000
     31      -8.4635      1.00000
     32      -8.4535      1.00000
     33      -8.4310      1.00000
     34      -8.4275      1.00000
     35      -8.4143      1.00000
     36      -8.4040      1.00000
     37      -8.3941      1.00000
     38      -8.3761      1.00000
     39      -8.3439      1.00000
     40      -8.3280      1.00000
     41      -8.3195      1.00000
     42      -8.3104      1.00000
     43      -8.2858      1.00000
     44      -8.2622      1.00000
     45      -8.2609      1.00000
     46      -8.2391      1.00000
     47      -8.2275      1.00000
     48      -8.2157      1.00000
     49      -8.2083      1.00000
     50      -8.2008      1.00000
     51      -8.1654      1.00000
     52      -8.1594      1.00000
     53      -8.1429      1.00000
     54      -8.1279      1.00000
     55      -8.1249      1.00000
     56      -8.0996      1.00000
     57      -8.0933      1.00000
     58      -8.0770      1.00000
     59      -8.0662      1.00000
     60      -8.0509      1.00000
[...]
    334       1.2781      0.00000
    335       1.3164      0.00000
    336       1.3470      0.00000
    337       1.3731      0.00000
    338       1.4312      0.00000
    339       1.4622      0.00000
    340       1.4714      0.00000
    341       1.4792      0.00000
    342       1.5010      0.00000
    343       1.5222      0.00000
    344       1.5547      0.00000
    345       1.5647      0.00000
    346       1.5798      0.00000
    347       1.5833      0.00000
    348       1.6077      0.00000

[...]

 soft charge-density along one line, spin component           2
         0         1         2         3         4         5         6         7         8         9
 total charge-density along one line

------------------------ aborting loop because EDIFF is reached ----------------------------------------

  FORCE on cell =-STRESS in cart. coord.  units (eV):
  Direction    XX          YY          ZZ          XY          YZ          ZX
  Alpha Z   172.95251   172.95251   172.95251
  Ewald   50147.26321 42739.52923 46898.74973  7905.73216  3303.03548  5447.32576
  Hartree 66288.90474 59152.19915 63223.14427  7570.73434  3168.43138  5224.54381
  E(xc)   -2841.72490 -2841.83649 -2842.00885    -0.05005     0.01334    -0.02947
  Local  ************************************-15484.26515 -6475.48957-10680.09256
  n-local  -506.81354  -508.23892  -506.31008     2.63735     0.71923     2.25694
  augment  4502.76604  4502.75917  4504.00378     1.40504     0.92730     1.51951
  Kinetic  6705.91358  6705.22667  6709.05537     3.76374     2.00942     4.16196
  Fock        0.00000     0.00000     0.00000     0.00000     0.00000     0.00000
  Total     -17.22892   -16.95443   -16.87802    -0.04257    -0.35342    -0.31405
  in kB      -2.33770    -2.30046    -2.29009    -0.00578    -0.04795    -0.04261

 VOLUME and BASIS-vectors are now :
  energy-cutoff  :      249.84
  volume of cell :    11808.08
      direct lattice vectors                 reciprocal lattice vectors
    22.771579503  0.000000000  0.000000000     0.043914389  0.000000000  0.000000000
     0.000000000 22.771579503  0.000000000     0.000000000  0.043914389  0.000000000
     0.000000000  0.000000000 22.771579503     0.000000000  0.000000000  0.043914389

  length of vectors
    22.771579503 22.771579503 22.771579503     0.043914389  0.043914389  0.043914389

 FORCES acting on ions
    electron-ion (+dipol)            ewald-force                    non-local-force                 convergence-correction
   -.126E+04 0.480E+02 -.123E+04   0.126E+04 -.473E+02 0.123E+04   0.266E+01 -.699E+00 0.298E+01   -.624E-03 -.359E-02 -.289E-02
   -.132E+04 -.778E+03 -.752E+03   0.132E+04 0.778E+03 0.751E+03   0.195E+01 0.753E+00 0.598E+00   0.539E-03 -.562E-03 0.350E-02
   -.159E+04 0.560E+03 -.407E+03   0.159E+04 -.559E+03 0.408E+03   0.270E+01 -.970E+00 -.918E+00   -.118E-01 -.684E-02 0.807E-02
   -.173E+04 -.373E+03 0.207E+03   0.173E+04 0.373E+03 -.206E+03   0.509E+01 -.777E-01 -.724E+00   0.195E-01 0.136E-01 0.172E-01
   -.968E+03 0.123E+04 -.884E+03   0.966E+03 -.122E+04 0.883E+03   0.194E+01 -.333E+01 0.157E+01   -.885E-03 0.765E-02 -.318E-02
   -.542E+03 -.775E+03 -.143E+04   0.542E+03 0.774E+03 0.142E+04   -.140E+00 0.294E+00 0.216E+01   -.105E-03 -.354E-02 -.124E-01
   -.413E+03 0.358E+03 -.169E+04   0.413E+03 -.357E+03 0.169E+04   0.230E-01 -.126E+01 0.465E+01   -.655E-02 -.200E-01 -.679E-02
   -.455E+03 0.170E+03 -.708E+03   0.454E+03 -.170E+03 0.706E+03   0.118E+01 -.245E+00 0.124E+01   -.227E-01 0.897E-02 -.148E-01
   -.151E+04 0.670E+03 0.724E+03   0.151E+04 -.667E+03 -.722E+03   0.361E+01 -.291E+01 -.165E+01   -.337E-02 -.646E-02 -.626E-04
   -.555E+03 -.139E+04 -.760E+03   0.555E+03 0.139E+04 0.760E+03   -.418E-01 0.976E+00 -.256E-01   0.166E-01 -.188E-01 -.234E-03
   -.102E+04 0.112E+04 -.103E+02   0.102E+04 -.112E+04 0.104E+02   0.128E+01 -.535E+00 -.748E-01   -.159E-01 -.844E-02 -.200E-01
   -.124E+04 -.122E+04 0.146E+03   0.123E+04 0.121E+04 -.145E+03   0.187E+01 0.264E+01 -.106E+01   -.745E-02 0.548E-03 0.522E-02
   -.122E+04 -.343E+03 0.123E+04   0.122E+04 0.344E+03 -.123E+04   0.247E+01 -.484E+00 -.241E+01   -.118E-01 0.854E-02 0.154E-02
   -.874E+03 -.133E+03 0.729E+02   0.872E+03 0.132E+03 -.725E+02   0.179E+01 0.617E+00 -.395E+00   -.260E-01 -.124E-01 0.901E-02
   -.911E+02 0.115E+04 -.127E+04   0.911E+02 -.115E+04 0.126E+04   0.128E-03 -.166E+01 0.172E+01   0.196E-04 0.364E-03 0.138E-01
   0.321E+03 -.264E+03 -.161E+04   -.320E+03 0.264E+03 0.160E+04   -.456E+00 0.488E+00 0.248E+01   -.629E-02 0.656E-03 -.909E-02
   -.668E+02 0.759E+02 0.226E+03   0.662E+02 -.756E+02 -.226E+03   0.554E+00 -.311E+00 -.394E+00   -.841E-02 0.218E-01 0.285E-02
   -.900E+03 0.449E+03 0.110E+04   0.900E+03 -.448E+03 -.110E+04   0.898E+00 -.863E+00 -.166E+00   -.461E-02 0.899E-02 -.102E-02
   -.720E+03 -.119E+04 0.117E+04   0.718E+03 0.119E+04 -.117E+04   0.169E+01 0.304E+01 -.308E+01   0.603E-02 -.127E-01 0.256E-02
   -.209E+03 -.864E+03 0.281E+03   0.208E+03 0.863E+03 -.280E+03   0.103E+01 0.135E+01 -.116E+01   -.711E-03 -.308E-02 -.986E-02
   -.325E+03 -.175E+04 0.154E+03   0.325E+03 0.174E+04 -.154E+03   -.458E+00 0.494E+01 -.445E+00   0.144E-01 0.325E-02 0.180E-02
   0.530E+03 -.168E+04 -.271E+03   -.529E+03 0.167E+04 0.271E+03   -.958E+00 0.443E+01 0.322E-01   -.181E-01 0.107E-01 0.349E-02
   0.767E+03 0.551E+03 -.155E+04   -.766E+03 -.550E+03 0.155E+04   -.146E+01 -.104E+01 0.372E+01   -.397E-02 0.766E-02 0.366E-02
   0.341E+03 -.124E+04 -.130E+04   -.338E+03 0.123E+04 0.130E+04   -.335E+01 0.260E+01 0.333E+01   -.582E-03 -.350E-02 0.423E-02
   -.360E+03 -.487E+03 0.145E+04   0.360E+03 0.487E+03 -.145E+04   0.163E+00 0.308E+00 -.678E+00   0.540E-02 0.210E-02 0.135E-01
   0.404E+03 -.144E+04 0.100E+04   -.402E+03 0.144E+04 -.100E+04   -.137E+01 0.408E+01 -.115E+01   -.805E-02 -.299E-02 0.773E-03
   0.322E+03 -.636E+03 -.576E+03   -.321E+03 0.635E+03 0.575E+03   -.462E+00 0.896E+00 0.457E+00   0.922E-02 -.412E-02 -.128E-01
   -.861E+03 0.152E+04 0.350E+03   0.859E+03 -.151E+04 -.349E+03   0.260E+01 -.391E+01 -.111E+01   -.139E-01 -.103E-01 0.199E-01
   0.120E+04 -.519E+03 -.121E+04   -.120E+04 0.517E+03 0.121E+04   -.152E+01 0.121E+01 0.247E+01   0.155E-01 -.192E-02 -.113E-01
   0.333E+02 0.834E+03 0.465E+03   -.331E+02 -.832E+03 -.464E+03   -.189E+00 -.150E+01 -.745E+00   0.138E-01 -.115E-02 0.155E-01
   -.280E+03 0.143E+04 -.435E+03   0.280E+03 -.143E+04 0.434E+03   -.235E+00 -.103E+01 0.438E+00   0.121E-01 0.252E-02 0.153E-01
   0.673E+03 0.144E+04 -.856E+03   -.671E+03 -.144E+04 0.854E+03   -.172E+01 -.367E+01 0.267E+01   0.717E-02 0.934E-03 0.310E-03
   0.157E+04 0.453E+03 -.806E+03   -.156E+04 -.452E+03 0.804E+03   -.422E+01 -.100E+01 0.220E+01   0.373E-02 0.736E-02 -.424E-02
   -.708E+03 0.860E+03 0.137E+04   0.705E+03 -.859E+03 -.136E+04   0.267E+01 -.147E+01 -.314E+01   0.462E-03 0.542E-02 0.135E-01
   0.521E+03 0.363E+03 -.546E+03   -.520E+03 -.362E+03 0.546E+03   -.967E+00 -.713E+00 0.614E+00   0.138E-01 0.110E-01 0.287E-04
   0.127E+04 -.123E+04 -.527E+03   -.126E+04 0.123E+04 0.526E+03   -.250E+01 0.345E+01 0.129E+01   -.849E-03 -.132E-01 0.746E-03
   0.861E+03 -.105E+04 0.362E+03   -.861E+03 0.105E+04 -.362E+03   -.146E+00 0.146E-01 -.123E+00   0.623E-02 -.930E-02 -.626E-02
   0.719E+03 0.294E+01 0.503E+03   -.717E+03 -.291E+01 -.502E+03   -.145E+01 -.545E-01 -.122E+01   0.167E-01 0.155E-01 -.202E-01
   -.970E+02 0.184E+01 0.156E+04   0.975E+02 -.134E+01 -.156E+04   -.517E+00 -.483E+00 -.132E+01   0.249E-02 -.109E-01 -.597E-02
   0.573E+03 -.844E+03 0.142E+04   -.572E+03 0.842E+03 -.142E+04   -.143E+01 0.214E+01 -.243E+01   -.663E-02 -.351E-02 0.878E-03
   0.512E+03 0.168E+04 -.112E+03   -.512E+03 -.167E+04 0.111E+03   0.711E-01 -.383E+01 0.835E+00   0.696E-02 0.149E-02 -.781E-02
   0.125E+03 0.157E+04 0.765E+03   -.126E+03 -.156E+04 -.763E+03   0.884E+00 -.456E+01 -.144E+01   -.285E-03 0.345E-02 0.113E-01
   0.155E+04 -.392E+03 -.244E+03   -.154E+04 0.392E+03 0.244E+03   -.183E+01 0.712E-03 -.911E-01   0.114E-01 0.764E-02 -.465E-02
   0.127E+04 0.894E+03 -.145E+03   -.127E+04 -.893E+03 0.146E+03   0.639E+00 -.655E+00 -.650E-01   -.394E-02 0.344E-02 -.102E-01
   0.147E+04 -.848E+03 0.669E+03   -.146E+04 0.844E+03 -.667E+03   -.399E+01 0.343E+01 -.165E+01   0.119E-01 -.348E-02 0.639E-02
   0.408E+03 0.696E+03 0.153E+04   -.408E+03 -.695E+03 -.153E+04   -.110E+00 -.148E+01 -.451E+01   0.342E-02 0.323E-02 -.228E-02
   0.113E+04 0.106E+04 0.719E+03   -.113E+04 -.106E+04 -.718E+03   -.182E+01 -.167E+01 -.950E+00   0.103E-01 -.349E-02 0.101E-01
   0.172E+04 0.278E+03 0.414E+03   -.171E+04 -.279E+03 -.414E+03   -.502E+01 0.360E+00 -.126E+00   -.559E-02 0.801E-02 -.771E-02
   0.104E+04 -.286E+02 0.143E+04   -.104E+04 0.279E+02 -.143E+04   -.263E+01 0.732E+00 -.197E+01   0.117E-01 0.544E-02 -.962E-02
   0.123E+01 0.170E+01 -.827E-01   0.523E-11 -.924E-12 -.909E-12   -.123E+01 -.168E+01 0.254E+00   0.302E-01 0.604E-02 0.192E-02

 POSITION                                       TOTAL-FORCE (eV/Angst)
     15.66184     11.65888     15.58038        -0.005243     -0.000709      0.006479
     15.66426     13.67985     13.70812         0.006486     -0.001002      0.000287
     16.26135     10.82245     13.05348        -0.007736     -0.001371     -0.004732
     17.05684     12.97384     11.31020        -0.002702     -0.004689      0.008032
     14.48706      9.15640     14.57473        -0.009716      0.001666     -0.007735
     13.55187     13.55274     15.61553        -0.003476     -0.008777      0.001093
     13.32340     10.81518     16.65748        -0.000694     -0.001227     -0.003823
     12.95045     11.29250     13.75078        -0.009329     -0.012182      0.003005
     16.15408     10.55668     10.10319        -0.003595      0.011723      0.004659
     13.39726     15.38645     13.48533        -0.008323     -0.007557     -0.005691
     14.12127      9.39623     11.72535         0.002353      0.002928     -0.007521
     15.18223     15.03836     11.27505         0.005870     -0.006876      0.001354
     15.14705     12.99417      9.05179         0.005778     -0.007212      0.013271
     14.34453     12.23461     11.55671         0.015277      0.004165     -0.004450
     11.67071      9.12914     15.12103        -0.006328     -0.002761      0.002900
     11.03712     12.07652     15.71418         0.001474      0.000700      0.002922
     11.67866     11.44038     11.08685        -0.005255      0.004439     -0.012954
     13.48337     10.46681      9.07714        -0.000439      0.004383     -0.002004
     13.88876     15.47985      8.76643        -0.000627      0.007331     -0.000267
     12.47160     14.19493     10.93122        -0.004414      0.014558      0.005872
     13.09702     16.94619     11.04493         0.000590     -0.004033      0.006341
     10.79384     15.92710     12.36798         0.003944     -0.003464      0.000304
      9.13897      9.93043     15.93527        -0.001991      0.001769      0.001109
     11.16382     15.01105     15.16193         0.000407     -0.001252     -0.000965
     12.43773     13.09420      8.32115        -0.013639     -0.008965     -0.001950
     11.07230     15.60898      8.98590        -0.001787      0.001229     -0.002598
     10.88893     13.21852     13.12458         0.002445      0.017108      0.003572
     13.09193      7.41237     10.00676        -0.010697     -0.023206      0.013355
      8.44288     12.44658     14.72342         0.000092      0.000769      0.000143
     10.93690      9.03896      9.81517         0.003103      0.010814      0.007490
     11.74333      8.27096     12.44926         0.003629     -0.007422      0.014299
      9.27743      7.94255     13.82937         0.002344      0.007873     -0.001498
      7.15096     10.04963     13.97044         0.004556      0.003542     -0.006447
     12.42054      8.41085      7.39405         0.001294     -0.004100      0.005949
      9.97170     10.56399     13.19090         0.002298     -0.006419     -0.001229
      8.37698     14.66304     13.10025        -0.001777      0.001053     -0.002909
      9.54957     13.90775     10.67269         0.004956      0.002063      0.000597
      9.18266     11.17669      9.88591        -0.001616     -0.006057     -0.010489
     11.02630     10.85474      7.57079         0.003341      0.007965     -0.000521
      9.67376     13.30420      7.89089         0.004690      0.000853     -0.005845
      9.59322      6.87128     11.11044         0.007038      0.002954      0.005117
     10.47988      6.65861      8.44469         0.003155      0.000277      0.001829
      7.60785     12.09869     12.00696         0.009216     -0.003262     -0.006166
      8.04704      9.11880     11.56290        -0.000502      0.009262      0.000337
      7.20602     13.04537      9.27853        -0.000698      0.003743     -0.001782
      9.67485      8.64464      6.56934        -0.001887     -0.005216      0.000770
      8.24551      8.37307      8.89495         0.003970      0.004067     -0.002420
      6.43992     10.38871      9.67806         0.003993      0.000564     -0.008112
      8.11010     10.88848      7.33707         0.000173     -0.000038     -0.008979
    total drift:                                0.032104      0.028091      0.172749

  FREE ENERGIE OF THE ION-ELECTRON SYSTEM (eV)
  free  energy   TOTEN  =      -106.51871455 eV

  energy  without entropy=     -106.51871455  energy(sigma->0) =     -106.51871455

 d Force = 0.6508061E-04[ 0.283E-04, 0.102E-03]  d Energy = 0.2118366E-03-0.147E-03
 d Force =-0.6972056E+01[-0.697E+01,-0.697E+01]  d Ewald  =-0.6972056E+01 0.347E-07

 reached required accuracy - stopping structural energy minimisation