 vasp.5.3.5 31Mar14 (build Feb 01 2018 12:10:03) gamma-only

 executed on             LinuxIFC date 2019.03.24  06:45:18

 INCAR:
 POTCAR:    PAW_PBE Ag 02Apr2005
 POTCAR:    PAW_PBE Ag 02Apr2005
   VRHFIN =Ag : s1 d10

   TITEL  = PAW_PBE Ag 02Apr2005
   POMASS =  107.868; ZVAL   =   11.000    mass and valenz
   ENMAX  =  249.844; ENMIN  =  187.383 eV

  PAW_PBE Ag 02Apr2005                  :

 POSCAR: Ti47, -315.16257615 <s> Ag </s>
  positions in direct lattice
 exchange correlation table for  LEXCH =        8
   RHO(1)=    0.500       N(1)  =     2000
   RHO(2)=  100.500       N(2)  =     4000

 ion  position               nearest neighbor table
   1  0.297  0.507  0.563-  13 2.52   2 2.74   3 2.82  10 2.84   4 2.97   8 3.24   6 3.34
   2  0.303  0.527  0.444-   3 2.66  15 2.66  13 2.73   1 2.74  11 2.83   6 2.88
   3  0.299  0.415  0.479-   2 2.66  13 2.69   8 2.71  11 2.76  16 2.81   1 2.82
   4  0.390  0.574  0.626-  17 2.59  10 2.63   5 2.79   6 2.96   1 2.97  14 3.04  12 3.23  13 3.34

   5  0.448  0.674  0.582-  12 2.56   9 2.65   4 2.79   6 2.81  18 2.81  26 2.85  17 2.99
   6  0.385  0.607  0.499-  23 2.75   5 2.81  13 2.85   2 2.88   7 2.92   4 2.96  17 2.98  15 3.22
                             1 3.34   9 3.41
   7  0.408  0.669  0.389-  19 2.60  15 2.63  23 2.64   9 2.86   6 2.92  20 2.99
   8  0.360  0.379  0.576-  10 2.50   3 2.71  16 2.78  13 2.84  24 2.85  21 3.23   1 3.24  28 3.28

   9  0.477  0.724  0.480-   5 2.65  19 2.71  22 2.73   7 2.86  23 2.88  18 2.95  26 2.97   6 3.41

[...]

  12  0.521  0.625  0.653-   5 2.56  29 2.75  17 2.81  26 2.88  18 2.94  37 3.00  14 3.05   4 3.23
                            30 3.49
  13  0.392  0.481  0.511-   1 2.52  27 2.61   3 2.69   2 2.73  17 2.81  24 2.82   8 2.84   6 2.85
                            16 2.96  10 3.13  11 3.22   4 3.34
  14  0.483  0.500  0.688-  29 2.69  10 2.69  35 2.90  24 2.93  21 2.99  17 3.00   4 3.04  30 3.05
                            12 3.05
  15  0.385  0.558  0.366-   7 2.63   2 2.66  25 2.66  11 2.75  20 2.78  27 2.88  23 3.11   6 3.22

  16  0.410  0.360  0.465-  32 2.78   8 2.78  28 2.79  33 2.80   3 2.81  11 2.86  13 2.96  34 3.06
                            27 3.21  24 3.39
  17  0.483  0.548  0.564-   4 2.59  30 2.62  26 2.63  24 2.80  13 2.81  12 2.81   6 2.98   5 2.99
                            14 3.00  36 3.09  23 3.10  27 3.49  10 3.60
  18  0.562  0.723  0.579-  26 2.34   5 2.81  12 2.94   9 2.95  22 2.96  37 3.39
  19  0.517  0.701  0.370-  22 2.56   7 2.60  20 2.71   9 2.71  23 2.76  31 2.80
  20  0.494  0.594  0.323-  23 2.67  25 2.68  19 2.71  15 2.78  31 2.89   7 2.99  39 3.19  27 3.46

  21  0.462  0.370  0.675-  24 2.46  38 2.84  10 2.86  14 2.99  35 3.05   8 3.23  28 3.27
  22  0.594  0.715  0.452-  19 2.56   9 2.73  26 2.74  40 2.75  31 2.79  18 2.96  23 3.43
  23  0.491  0.605  0.440-  26 2.60   7 2.64  20 2.67   6 2.75  19 2.76  27 2.82   9 2.88  31 2.94
                            36 3.01  17 3.10  15 3.11  22 3.43
  24  0.477  0.425  0.582-  21 2.46  34 2.64  10 2.79  17 2.80  13 2.82   8 2.85  28 2.85  30 2.86
                            38 2.88  14 2.93  16 3.39  35 3.43
  25  0.454  0.484  0.307-  15 2.66  20 2.68  27 2.69  33 2.70  11 2.80  39 3.00
  26  0.555  0.632  0.531-  18 2.34  23 2.60  17 2.63  22 2.74  36 2.81  37 2.81   5 2.85  40 2.86
                            12 2.88   9 2.97  30 3.48  31 3.60
  27  0.469  0.483  0.425-  13 2.61  39 2.68  25 2.69  33 2.75  11 2.79  23 2.82  34 2.82  15 2.88
                            36 3.12  16 3.21  20 3.46  17 3.49
  28  0.481  0.304  0.548-  38 2.48  32 2.67  16 2.79  24 2.85  34 2.88  43 3.06  21 3.27   8 3.28

  29  0.593  0.542  0.705-  42 2.63  14 2.69  30 2.71  35 2.73  12 2.75  37 2.78
  30  0.581  0.495  0.595-  42 2.62  17 2.62  35 2.65  36 2.69  29 2.71  44 2.72  24 2.86  37 2.86
                            14 3.05  46 3.07  34 3.43  26 3.48  12 3.49  38 3.60
  31  0.606  0.615  0.381-  45 2.68  40 2.76  22 2.79  19 2.80  20 2.89  23 2.94  39 3.03  36 3.08
                            26 3.60
  32  0.507  0.292  0.434-  41 2.67  28 2.67  33 2.67  43 2.69  16 2.78  34 2.80
  33  0.475  0.379  0.362-  32 2.67  41 2.68  25 2.70  27 2.75  16 2.80  11 2.90  34 3.18  39 3.26

[...]

  39  0.572  0.486  0.368-  27 2.68  36 2.71  45 2.91  41 2.92  25 3.00  31 3.03  47 3.08  20 3.19
                            33 3.26  34 3.41
  40  0.672  0.627  0.482-  45 2.70  22 2.75  31 2.76  46 2.78  26 2.86  36 3.02  37 3.04
  41  0.590  0.359  0.384-  47 2.66  32 2.67  33 2.68  34 2.74  43 2.83  39 2.92
  42  0.683  0.492  0.651-  30 2.62  29 2.63  46 2.74  37 2.79  44 2.81  35 2.82
  43  0.606  0.308  0.497-  34 2.60  32 2.69  38 2.81  41 2.83  44 2.92  28 3.06  47 3.07
  44  0.654  0.402  0.570-  38 2.65  47 2.69  30 2.72  42 2.81  43 2.92  46 2.96  35 3.10  34 3.25

[...]

  47  0.658  0.425  0.454-  41 2.66  45 2.67  44 2.69  36 2.80  34 2.88  46 2.95  43 3.07  39 3.08

  LATTYP: Found a simple cubic cell.
 ALAT       =    22.6303358681

  Lattice vectors:

 A1 = (  22.6303358681,   0.0000000000,   0.0000000000)
 A2 = (   0.0000000000,  22.6303358681,   0.0000000000)
 A3 = (   0.0000000000,   0.0000000000,  22.6303358681)

Analysis of symmetry for initial positions (statically):
 Subroutine PRICEL returns:
 Original cell was already a primitive cell.

 Routine SETGRP: Setting up the symmetry group for a
 simple cubic supercell.

 Subroutine GETGRP returns: Found  1 space group operations
 (whereof  1 operations were pure point group operations)
 out of a pool of 48 trial point group operations.

The static configuration has the point symmetry C_1 .

Analysis of symmetry for dynamics (positions and initial velocities):
 Subroutine PRICEL returns:
 Original cell was already a primitive cell.

 Routine SETGRP: Setting up the symmetry group for a
 simple cubic supercell.

 Subroutine GETGRP returns: Found  1 space group operations
 (whereof  1 operations were pure point group operations)
 out of a pool of 48 trial point group operations.

The dynamic configuration has the point symmetry C_1 .

Analysis of magnetic symmetry:
 Subroutine PRICEL returns:
 Original cell was already a primitive cell.

 Subroutine MAGSYM returns: Found  1 space group operations
 (whereof  1 operations were pure point group operations)
 out of a pool of  1 trial space group operations
 (whereof  1 operations were pure point group operations)
 and found also     1 'primitive' translations

The magnetic configuration has the point symmetry C_1 .

 KPOINTS: Gamma-point only
  k-points in reciprocal lattice
Space group operators:
 irot       det(A)        alpha          n_x          n_y          n_z        tau_x        tau_y        tau_z
    1     1.000000     0.000000     1.000000     0.000000     0.000000     0.000000     0.000000     0.000000

 I would recommend the setting:
   dimension x,y,z NGX =    87 NGY =   87 NGZ =   87
 SYSTEM =  unknown system
 POSCAR =  Ti47, -315.16257615 <s> Ag </s>

 Startparameter for this run:
   NWRITE =      2    write-flag & timer
   PREC   = normal    normal or accurate (medium, high low for compatibility)
   ISTART =      0    job   : 0-new  1-cont  2-samecut
   ICHARG =      2    charge: 1-file 2-atom 10-const
   ISPIN  =      2    spin polarized calculation?
   LNONCOLLINEAR =      F non collinear calculations
   LSORBIT =      F    spin-orbit coupling
   INIWAV =      1    electr: 0-lowe 1-rand  2-diag
   LASPH  =      F    aspherical Exc in radial PAW
   METAGGA=      F    non-selfconsistent MetaGGA calc.

 Electronic Relaxation 1
   ENCUT  =  249.8 eV  18.36 Ry    4.29 a.u.  29.17 29.17 29.17*2*pi/ulx,y,z
   ENINI  =  249.8     initial cutoff
   ENAUG  =  412.5 eV  augmentation charge cutoff
   NELM   =     60;   NELMIN=  2; NELMDL= -5     # of ELM steps
   EDIFF  = 0.1E-03   stopping-criterion for ELM
   LREAL  =      F    real-space projection
   NLSPLINE    = F    spline interpolate recip. space projectors
   LCOMPAT=      F    compatible to vasp.4.4
   GGA_COMPAT  = T    GGA compatible to vasp.4.4-vasp.4.6
   LMAXPAW     = -100 max onsite density
   LMAXMIX     =    2 max onsite mixed and CHGCAR
   VOSKOWN=      0    Vosko Wilk Nusair interpolation
   ROPT   =    0.00000
 Ionic relaxation
   EDIFFG = 0.1E-02   stopping-criterion for IOM
   NSW    =   1000    number of steps for IOM
   NBLOCK =      1;   KBLOCK =   1000    inner block; outer block
   IBRION =      2    ionic relax: 0-MD 1-quasi-New 2-CG
   NFREE  =      1    steps in history (QN), initial steepest desc. (CG)
   ISIF   =      2    stress and relaxation
   IWAVPR =     11    prediction:  0-non 1-charg 2-wave 3-comb
   ISYM   =      2    0-nonsym 1-usesym 2-fastsym
   LCORR  =      T    Harris-Foulkes like correction to forces

   POTIM  = 0.1000    time-step for ionic-motion
   TEIN   =    0.0    initial temperature
   TEBEG  =    0.0;   TEEND  =   0.0 temperature during run
   SMASS  =  -3.00    Nose mass-parameter (am)
   estimated Nose-frequenzy (Omega)   =  0.10E-29 period in steps =****** mass=  -0.117E-25a.u.
   SCALEE = 1.0000    scale energy and forces
   NPACO  =    256;   APACO  = 16.0  distance and # of slots for P.C.
   PSTRESS=    0.0 pullay stress

  Mass of Ions in am
   POMASS = 107.87
  Ionic Valenz
   ZVAL   =  11.00
  Atomic Wigner-Seitz radii
  virtual crystal weights
   VCA    =   1.00
   NELECT =     517.0000    total number of electrons
   NUPDOWN=      -1.0000    fix difference up-down

 DOS related values:
   EMIN   =  10.00;   EMAX   =-10.00  energy-range for DOS
   EFERMI =   0.00
   ISMEAR =     0;   SIGMA  =   0.00  broadening in eV -4-tet -1-fermi 0-gaus

 Electronic relaxation 2 (details)
   IALGO  =     38    algorithm
   LDIAG  =      T    sub-space diagonalisation (order eigenvalues)
   LSUBROT=      F    optimize rotation matrix (better conditioning)
   TURBO    =      0    0=normal 1=particle mesh
   IRESTART =      0    0=no restart 2=restart with 2 vectors
   NREBOOT  =      0    no. of reboots
   NMIN     =      0    reboot dimension
   EREF     =   0.00    reference energy to select bands
   IMIX   =      4    mixing-type and parameters
     AMIX     =   0.40;   BMIX     =  1.00
     AMIX_MAG =   1.60;   BMIX_MAG =  1.00
     AMIN     =   0.10
     WC   =   100.;   INIMIX=   1;  MIXPRE=   1;  MAXMIX= -45

 Intra band minimization:
   WEIMIN = 0.0010     energy-eigenvalue tresh-hold
   EBREAK =  0.74E-07  absolut break condition
   DEPER  =   0.30     relativ break condition

   TIME   =   0.40     timestep for ELM

  volume/ion in A,a.u.               =     246.59      1664.07
  Fermi-wavevector in a.u.,A,eV,Ry     =   0.580605  1.097184  4.586551  0.337102
  Thomas-Fermi vector in A             =   1.624779

 Write flags
   LWAVE  =      F    write WAVECAR
   LCHARG =      F    write CHGCAR
   LVTOT  =      F    write LOCPOT, total local potential
   LVHAR  =      F    write LOCPOT, Hartree potential only
   LELF   =      F    write electronic localiz. function (ELF)
   LORBIT =      0    0 simple, 1 ext, 2 COOP (PROOUT)

 Dipole corrections
   LMONO  =      F    monopole corrections only (constant potential shift)
   LDIPOL =      F    correct potential (dipole corrections)
[...]
  PAW double counting   =     50886.94666780   -48806.98153000
  entropy T*S    EENTRO =        -0.00000000
  eigenvalues    EBANDS =     -3701.67628854
  atomic energy  EATOM  =     48748.33561406
  free energy    TOTEN  =      -102.15635975 eV

  energy without entropy =     -102.15635975  energy(sigma->0) =     -102.15635975

 average (electrostatic) potential at core
  the test charge radii are     1.1249
  (the norm of the test charge is              1.0000)
       1 -81.8980       2 -81.9286       3 -82.0658       4 -82.1222       5 -82.1168
       6 -82.0906       7 -81.8139       8 -81.9668       9 -81.9366      10 -81.9654
      11 -82.0877      12 -82.0442      13 -82.3081      14 -82.1743      15 -81.9981
      16 -82.1681      17 -82.4854      18 -81.8406      19 -81.8327      20 -81.9268
      21 -81.9125      22 -81.8896      23 -82.3396      24 -82.2932      25 -81.9425
      26 -82.3497      27 -82.3690      28 -82.0336      29 -81.9466      30 -82.4744
      31 -82.1670      32 -81.9603      33 -82.1485      34 -82.3190      35 -82.0540
      36 -82.4081      37 -81.9766      38 -81.9622      39 -82.0971      40 -81.9551
      41 -81.9720      42 -82.0197      43 -81.9935      44 -82.2094      45 -82.1800
      46 -82.2222      47 -82.1978

 E-fermi :  -3.2240     XC(G=0):  -1.3879     alpha+bet : -0.9308

[...]

 spin component 2

 k-point     1 :       0.0000    0.0000    0.0000
  band No.  band energies     occupation
      1      -9.7787      1.00000
      2      -9.2122      1.00000
      3      -9.1452      1.00000
      4      -9.1193      1.00000
      5      -9.1047      1.00000
      6      -9.0600      1.00000
      7      -9.0426      1.00000
      8      -8.9937      1.00000
      9      -8.9672      1.00000
     10      -8.9375      1.00000
     11      -8.9212      1.00000
     12      -8.9025      1.00000
     13      -8.8671      1.00000
     14      -8.7998      1.00000
     15      -8.7947      1.00000
     16      -8.7683      1.00000
     17      -8.7664      1.00000
     18      -8.7276      1.00000
     19      -8.7214      1.00000
     20      -8.6838      1.00000
     21      -8.6571      1.00000
     22      -8.6553      1.00000
     23      -8.6221      1.00000
     24      -8.5991      1.00000
     25      -8.5950      1.00000
     26      -8.5757      1.00000
     27      -8.5546      1.00000
     28      -8.5441      1.00000
     29      -8.5155      1.00000
     30      -8.5068      1.00000
     31      -8.4927      1.00000
     32      -8.4707      1.00000
     33      -8.4630      1.00000
     34      -8.4427      1.00000
     35      -8.4283      1.00000
     36      -8.4184      1.00000
     37      -8.4158      1.00000
     38      -8.4041      1.00000
     39      -8.3669      1.00000
     40      -8.3622      1.00000
     41      -8.3432      1.00000
     42      -8.3340      1.00000
     43      -8.3092      1.00000
     44      -8.2970      1.00000
     45      -8.2865      1.00000
     46      -8.2744      1.00000
     47      -8.2509      1.00000
     48      -8.2412      1.00000
     49      -8.2318      1.00000
     50      -8.2098      1.00000
     51      -8.1917      1.00000
     52      -8.1892      1.00000
     53      -8.1691      1.00000
     54      -8.1258      1.00000
     55      -8.1201      1.00000
     56      -8.1158      1.00000
     57      -8.1087      1.00000
     58      -8.0749      1.00000
     59      -8.0617      1.00000
     60      -8.0486      1.00000
[...]
    322       1.2758      0.00000
    323       1.3162      0.00000
    324       1.3367      0.00000
    325       1.3708      0.00000
    326       1.3940      0.00000
    327       1.4359      0.00000
    328       1.4467      0.00000
    329       1.4829      0.00000
    330       1.5089      0.00000
    331       1.5145      0.00000
    332       1.5319      0.00000
    333       1.5605      0.00000
    334       1.5702      0.00000
    335       1.5938      0.00000
    336       1.6246      0.00000

[...]

 soft charge-density along one line, spin component           2
         0         1         2         3         4         5         6         7         8         9
 total charge-density along one line

------------------------ aborting loop because EDIFF is reached ----------------------------------------

  FORCE on cell =-STRESS in cart. coord.  units (eV):
  Direction    XX          YY          ZZ          XY          YZ          ZX
  Alpha Z   162.12011   162.12011   162.12011
  Ewald   40239.33149 55543.33316 37849.31695  4718.34549 -3695.96084  4429.71835
  Hartree 56072.24913 70724.66809 53695.01568  4433.61440 -3461.11689  4117.72203
  E(xc)   -2726.32238 -2725.54529 -2725.94597     0.36940    -0.27831     0.50382
  Local  ************************-99260.95072 -9151.33082  7158.47744 -8544.15618
  n-local  -489.79732  -486.88651  -489.05934     1.08167    -1.44594     0.79267
  augment  4319.82820  4319.67197  4319.68727    -0.71617     0.16809    -1.45539
  Kinetic  6433.56530  6434.09722  6433.55310    -1.15048     0.17603    -2.81858
  Fock        0.00000     0.00000     0.00000     0.00000     0.00000     0.00000
  Total     -16.68739   -16.94305   -16.26291     0.21349     0.01959     0.30672
  in kB      -2.30689    -2.34223    -2.24821     0.02951     0.00271     0.04240

 VOLUME and BASIS-vectors are now :
  energy-cutoff  :      249.84
  volume of cell :    11589.72
      direct lattice vectors                 reciprocal lattice vectors
    22.630335868  0.000000000  0.000000000     0.044188474  0.000000000  0.000000000
     0.000000000 22.630335868  0.000000000     0.000000000  0.044188474  0.000000000
     0.000000000  0.000000000 22.630335868     0.000000000  0.000000000  0.044188474

  length of vectors
    22.630335868 22.630335868 22.630335868     0.044188474  0.044188474  0.044188474

 FORCES acting on ions
    electron-ion (+dipol)            ewald-force                    non-local-force                 convergence-correction
   0.162E+04 -.463E+02 -.685E+03   -.162E+04 0.462E+02 0.684E+03   -.393E+01 0.666E-01 0.113E+01   0.247E-01 -.485E-01 0.187E-01
   0.168E+04 -.336E+03 0.427E+03   -.167E+04 0.335E+03 -.426E+03   -.374E+01 0.735E+00 -.102E+01   0.874E-02 -.155E-01 0.170E-01
   0.158E+04 0.822E+03 0.234E+03   -.157E+04 -.820E+03 -.232E+03   -.489E+01 -.200E+01 -.168E+01   -.165E-02 -.224E-01 -.595E-01
   0.119E+04 -.758E+03 -.106E+04   -.119E+04 0.757E+03 0.105E+04   -.195E+01 0.156E+01 0.253E+01   -.775E-02 -.259E-01 -.402E-01
   0.773E+03 -.128E+04 -.775E+03   -.772E+03 0.128E+04 0.773E+03   -.137E+01 0.262E+01 0.124E+01   0.132E-01 -.498E-04 0.526E-01
   0.132E+04 -.945E+03 -.114E+02   -.132E+04 0.944E+03 0.115E+02   -.126E+01 0.588E+00 -.150E+00   0.641E-02 0.400E-02 -.152E-01
   0.102E+04 -.123E+04 0.773E+03   -.101E+04 0.123E+04 -.771E+03   -.329E+01 0.302E+01 -.237E+01   0.302E-01 -.110E-01 -.143E-02
   0.114E+04 0.117E+04 -.613E+03   -.114E+04 -.117E+04 0.611E+03   -.242E+01 -.124E+01 0.157E+01   -.320E-01 0.402E-01 -.426E-02
   0.405E+03 -.165E+04 0.839E+02   -.403E+03 0.164E+04 -.847E+02   -.154E+01 0.272E+01 0.882E+00   0.492E-02 0.149E-01 0.109E-01
   0.101E+04 0.254E+03 -.142E+04   -.101E+04 -.253E+03 0.142E+04   -.700E+00 -.857E+00 0.199E+01   0.371E-01 0.734E-02 0.532E-01
   0.122E+04 0.524E+03 0.116E+04   -.121E+04 -.523E+03 -.116E+04   -.238E+01 -.837E+00 -.205E+01   0.605E-02 -.193E-01 0.833E-02
   -.606E+02 -.108E+04 -.137E+04   0.619E+02 0.108E+04 0.136E+04   -.131E+01 0.980E+00 0.248E+01   0.153E-01 -.240E-01 0.111E-01
   0.925E+03 0.210E+03 -.989E+02   -.923E+03 -.210E+03 0.984E+02   -.127E+01 0.446E-01 0.461E+00   -.170E-01 -.149E-01 -.160E-01
   0.466E+03 -.309E+03 -.160E+04   -.465E+03 0.308E+03 0.159E+04   -.154E+01 0.877E+00 0.248E+01   0.156E-01 0.219E-01 -.183E-01
   0.113E+04 -.535E+03 0.122E+04   -.113E+04 0.534E+03 -.122E+04   -.134E+01 0.548E+00 -.257E+01   0.338E-02 0.754E-02 -.185E-01
   0.871E+03 0.128E+04 0.504E+03   -.870E+03 -.128E+04 -.503E+03   -.823E+00 -.130E+01 -.264E+00   -.193E-01 -.189E-01 -.971E-02
   0.319E+03 -.326E+03 -.374E+03   -.319E+03 0.326E+03 0.374E+03   -.117E+00 -.271E+00 0.176E+00   0.675E-01 -.339E-02 0.343E-01
   -.264E+03 -.155E+04 -.730E+03   0.262E+03 0.155E+04 0.728E+03   0.220E+01 0.466E+01 0.200E+01   -.595E-02 0.599E-02 -.140E-02
   -.135E+03 -.127E+04 0.123E+04   0.135E+03 0.127E+04 -.123E+04   -.324E+00 0.353E+01 -.343E+01   -.496E-02 -.306E-02 0.137E-01
   -.123E+03 -.505E+03 0.166E+04   0.123E+03 0.505E+03 -.165E+04   -.304E+00 0.106E-01 -.274E+01   0.316E-02 -.191E-02 -.151E-01
   0.434E+03 0.108E+04 -.137E+04   -.433E+03 -.108E+04 0.136E+04   -.603E+00 -.168E+01 0.445E+01   0.134E-01 0.254E-02 0.192E-01
   -.859E+03 -.148E+04 0.340E+03   0.857E+03 0.147E+04 -.340E+03   0.189E+01 0.380E+01 -.515E-01   0.915E-02 -.342E-01 -.131E-01
   0.210E+03 -.819E+03 0.518E+03   -.210E+03 0.818E+03 -.517E+03   -.323E-01 0.110E+01 -.624E+00   0.286E-01 0.115E-01 -.131E-01
   0.163E+03 0.568E+03 -.685E+03   -.162E+03 -.567E+03 0.685E+03   -.391E+00 -.158E+01 0.179E+00   -.101E-01 0.151E-01 0.316E-01
   0.393E+03 0.185E+03 0.176E+04   -.392E+03 -.184E+03 -.176E+04   -.116E+01 -.588E+00 -.454E+01   -.467E-01 0.248E-01 -.716E-02
   -.585E+03 -.947E+03 -.278E+03   0.585E+03 0.946E+03 0.278E+03   0.374E-01 0.802E+00 -.117E-01   0.654E-02 -.185E-01 0.466E-01
   0.301E+03 0.611E+02 0.768E+03   -.300E+03 -.611E+02 -.767E+03   -.403E+00 -.243E-01 -.117E+01   -.940E-02 0.198E-02 -.167E-01
   0.269E+03 0.163E+04 -.335E+03   -.269E+03 -.163E+04 0.334E+03   -.275E-01 -.222E+01 0.625E+00   -.250E-02 0.411E-01 -.146E-01
   -.514E+03 -.348E+03 -.169E+04   0.512E+03 0.347E+03 0.168E+04   0.153E+01 0.735E+00 0.439E+01   -.301E-02 0.163E-01 0.295E-02
   -.566E+03 -.114E+03 -.769E+03   0.565E+03 0.113E+03 0.768E+03   0.105E+01 0.390E+00 0.120E+01   -.305E-01 -.257E-01 -.115E-01
   -.964E+03 -.711E+03 0.114E+04   0.962E+03 0.712E+03 -.114E+04   0.190E+01 -.776E+00 -.117E+01   -.859E-02 -.685E-02 -.449E-01
   0.779E+02 0.165E+04 0.656E+03   -.780E+02 -.165E+04 -.654E+03   0.269E-01 -.444E+01 -.182E+01   -.298E-01 0.122E-01 -.474E-01
   0.258E+03 0.992E+03 0.142E+04   -.258E+03 -.990E+03 -.141E+04   -.249E+00 -.165E+01 -.268E+01   -.189E-01 0.409E-01 -.446E-01
   -.220E+03 0.768E+03 0.301E+03   0.220E+03 -.767E+03 -.301E+03   0.597E+00 -.117E+01 -.323E+00   -.276E-01 0.115E-01 0.701E-02
   -.398E+03 0.629E+03 -.159E+04   0.398E+03 -.628E+03 0.159E+04   -.292E+00 -.885E+00 0.361E+01   0.306E-01 0.344E-02 0.317E-01
   -.676E+03 -.434E+02 0.384E+03   0.676E+03 0.438E+02 -.384E+03   0.859E+00 -.468E+00 -.237E+00   0.876E-03 -.671E-02 0.661E-02
   -.133E+04 -.845E+03 -.885E+03   0.133E+04 0.842E+03 0.882E+03   0.254E+01 0.221E+01 0.237E+01   0.456E-02 0.257E-01 0.244E-02
   -.618E+03 0.138E+04 -.959E+03   0.616E+03 -.137E+04 0.957E+03   0.201E+01 -.335E+01 0.204E+01   0.144E-01 0.951E-02 0.340E-03
   -.752E+03 0.259E+03 0.151E+04   0.750E+03 -.260E+03 -.151E+04   0.159E+01 0.936E+00 -.177E+01   -.347E-03 0.134E-01 -.237E-02
   -.156E+04 -.861E+03 0.160E+03   0.155E+04 0.860E+03 -.160E+03   0.378E+01 0.113E+01 0.217E+00   -.136E-01 -.141E-01 0.726E-02
   -.841E+03 0.110E+04 0.117E+04   0.839E+03 -.110E+04 -.116E+04   0.169E+01 -.226E+01 -.307E+01   -.401E-01 0.430E-02 0.277E-02
   -.144E+04 0.329E+03 -.107E+04   0.144E+04 -.328E+03 0.107E+04   0.409E+01 -.130E+01 0.303E+01   0.201E-01 -.165E-01 0.140E-02
   -.966E+03 0.149E+04 0.134E+02   0.964E+03 -.148E+04 -.130E+02   0.170E+01 -.345E+01 -.442E+00   -.102E-01 -.725E-02 0.106E-02
   -.117E+04 0.851E+03 -.477E+03   0.117E+04 -.851E+03 0.477E+03   0.193E+00 -.289E+00 0.167E+00   -.907E-02 -.229E-01 -.776E-04
   -.153E+04 -.545E+02 0.989E+03   0.153E+04 0.546E+02 -.985E+03   0.384E+01 -.104E+00 -.361E+01   0.756E-02 0.665E-04 0.175E-01
   -.171E+04 0.797E+02 -.137E+03   0.171E+04 -.801E+02 0.138E+03   0.293E+01 0.348E+00 -.506E+00   -.173E-01 0.120E-01 0.202E-03
   -.148E+04 0.738E+03 0.549E+03   0.147E+04 -.738E+03 -.548E+03   0.238E+01 -.286E+00 -.104E+01   -.216E-01 -.684E-02 0.290E-01
   0.805E+00 -.339E+00 0.151E+00   -.114E-11 -.341E-11 -.682E-12   -.831E+00 0.390E+00 -.140E+00   -.159E-01 -.201E-01 0.123E-01

 POSITION                                       TOTAL-FORCE (eV/Angst)
      6.49428     10.94162     13.10814         0.006348     -0.022880      0.007279
      6.62396     11.81790     10.29312         0.002133     -0.003113      0.005543
      6.63406      9.02397     10.99583        -0.003901     -0.006855     -0.017061
      8.55318     12.78543     13.71032         0.000223     -0.008426     -0.013868
     10.32029     14.98643     12.84076         0.001578     -0.004940      0.008731
      8.51656     13.67619     11.05829         0.011469      0.000482     -0.003180
      9.09773     15.62271      9.00271         0.005919     -0.000450     -0.002288
      8.31063      8.06989     13.06512        -0.005425      0.014626      0.003512
     10.98165     16.82817     10.75107         0.001813      0.002270      0.005238
      8.63143     10.20269     14.83674         0.009810      0.001361      0.017353
      8.23097     10.06221      8.72595        -0.001318     -0.002318     -0.002092
     12.36787     14.45460     14.78312         0.004036     -0.000279      0.006559
      8.82225     10.57435     11.62885         0.010202      0.004167     -0.003384
     10.88274     11.92051     15.16999        -0.000471      0.007672      0.001443
      8.62511     12.90008      8.34526        -0.000075      0.001488     -0.004016
      9.22234      8.01410     10.39291        -0.002903     -0.006457     -0.005770
     10.88161     12.31567     12.22773        -0.012230      0.001533     -0.008745
     12.52315     16.78299     13.12745         0.000088     -0.000043      0.000132
     11.86778     16.01857      8.18242         0.000126      0.004224      0.000666
     11.54382     13.25855      7.40690        -0.001441     -0.001921     -0.006994
     10.25588      7.81125     15.12477         0.001950      0.000562      0.001920
     13.73074     16.45164     10.40946         0.001680     -0.014017     -0.001889
     11.09775     14.06404     10.03024         0.007502     -0.004553      0.009922
     11.08014      9.67474     13.28258        -0.003002      0.000188      0.007899
     10.16279     10.96912      6.74333        -0.017828      0.010829     -0.006763
     13.07679     14.29134     12.08071         0.001619      0.000448      0.004841
     10.60843     11.28326      9.51224        -0.000502      0.006546      0.000956
     10.79007      6.84591     12.43434        -0.000327      0.013950     -0.003702
     13.53394     12.42330     16.32398         0.004152      0.000800     -0.000703
     13.18222     11.83080     13.62438         0.022402     -0.010176      0.010671
     13.73870     14.07863      8.97162         0.004930     -0.007576     -0.010716
     11.37393      6.34399      9.74093        -0.009597      0.005625     -0.011405
     10.77969      8.65506      8.11965        -0.004614      0.008850     -0.007039
     11.93991      9.08059     10.68314        -0.012195      0.001233      0.001595
     12.80305      9.73005     15.53470         0.009171      0.002515      0.005788
     13.13992     11.79266     10.68228         0.000548      0.000474     -0.005046
     15.13849     13.77147     14.01882         0.000189      0.001087      0.000410
     12.84796      7.26407     14.18926        -0.000304      0.000100      0.001444
     12.96758     10.62664      8.06479         0.000114      0.004249      0.000311
     15.63368     14.31061     11.08859        -0.003953     -0.002027      0.000524
     13.46658      7.77483      8.52927        -0.010817      0.005815      0.000958
     15.44603     10.89026     14.86976        -0.001928     -0.000613     -0.004596
     13.62104      6.97934     11.38644        -0.007544     -0.002182     -0.004295
     14.11311      9.31369     12.89183         0.001924      0.001078      0.004672
     15.55145     12.00198      9.28191         0.000318     -0.000316      0.005356
     15.60251     11.63895     12.10738        -0.004527      0.000430      0.007052
     14.81247      9.46611     10.22163        -0.005345     -0.003461      0.002776
    total drift:                               -0.042235      0.030336      0.023045

  FREE ENERGIE OF THE ION-ELECTRON SYSTEM (eV)
  free  energy   TOTEN  =      -102.15635975 eV

  energy  without entropy=     -102.15635975  energy(sigma->0) =     -102.15635975

 d Force = 0.5785407E-03[ 0.490E-03, 0.667E-03]  d Energy = 0.8267174E-03-0.248E-03
 d Force =-0.1077375E+01[-0.107E+01,-0.108E+01]  d Ewald  =-0.1077372E+01-0.238E-05

 reached required accuracy - stopping structural energy minimisation