 vasp.5.3.5 31Mar14 (build Feb 01 2018 12:10:03) gamma-only

 executed on             LinuxIFC date 2019.03.24  20:58:54

 INCAR:
 POTCAR:    PAW_PBE Ag 02Apr2005
 POTCAR:    PAW_PBE Ag 02Apr2005
   VRHFIN =Ag : s1 d10

   TITEL  = PAW_PBE Ag 02Apr2005
   POMASS =  107.868; ZVAL   =   11.000    mass and valenz
   ENMAX  =  249.844; ENMIN  =  187.383 eV

  PAW_PBE Ag 02Apr2005                  :

 POSCAR: Pt49, -251.42003616 <s> Ag </s>
  positions in direct lattice
 exchange correlation table for  LEXCH =        8
   RHO(1)=    0.500       N(1)  =     2000
   RHO(2)=  100.500       N(2)  =     4000

 ion  position               nearest neighbor table
   1  0.738  0.534  0.580-   3 2.74   9 2.75   2 2.76   8 2.76   4 2.78  11 3.32
   2  0.694  0.510  0.470-   6 2.72   1 2.76   3 2.77   5 2.79  12 2.85   4 2.94  11 2.96  15 3.27
                            27 3.48
   3  0.710  0.625  0.506-  15 2.70   1 2.74   2 2.77   7 2.80   8 2.86  13 2.94   5 3.10
   4  0.688  0.424  0.566-  11 2.71  10 2.73   6 2.76   1 2.78  14 2.83   9 2.89   2 2.94
   5  0.648  0.590  0.389-  15 2.76   7 2.77  17 2.78   2 2.79  12 2.81  33 2.89   3 3.10  27 3.25

   6  0.683  0.392  0.449-  16 2.68   2 2.72   4 2.76  10 2.80  12 2.80
   7  0.656  0.705  0.429-  24 2.73   5 2.77  17 2.78  13 2.79   3 2.80  15 3.03
   8  0.661  0.618  0.622-  19 2.74   1 2.76   9 2.82  20 2.86   3 2.86  13 2.87  22 3.17  15 3.28
                            11 3.36
   9  0.656  0.501  0.661-  11 2.71  21 2.74   1 2.75   8 2.82  20 2.85   4 2.89  14 2.89
  10  0.613  0.336  0.533-   4 2.73  14 2.76  29 2.77  28 2.78  18 2.79   6 2.80  16 2.97
  11  0.598  0.501  0.557-   9 2.71   4 2.71  23 2.72  22 2.76  15 2.82  28 2.83  27 2.84   2 2.96
                            14 3.07   1 3.32   8 3.36
  12  0.624  0.470  0.374-  27 2.67  16 2.79   6 2.80   5 2.81   2 2.85  31 2.92  33 3.00
  13  0.623  0.712  0.547-  15 2.72  19 2.74   7 2.79  24 2.86   8 2.87  35 2.88   3 2.94
  14  0.593  0.393  0.638-  21 2.72  10 2.76   4 2.83  29 2.85  25 2.85   9 2.89  11 3.07  23 3.16
                            28 3.36
  15  0.593  0.608  0.495-  26 2.66  27 2.69   3 2.70  22 2.72  13 2.72   5 2.76  11 2.82  24 2.94
                             7 3.03   2 3.27   8 3.28
  16  0.575  0.364  0.411-   6 2.68  34 2.69  18 2.76  12 2.79  28 2.82  31 2.83  10 2.97  27 3.56

  17  0.574  0.676  0.344-  33 2.75  24 2.78  30 2.78   5 2.78   7 2.78
  18  0.525  0.275  0.475-  16 2.76  38 2.77  29 2.78  10 2.79  34 2.83  28 3.29
  19  0.575  0.694  0.656-  35 2.72   8 2.74  13 2.74  20 2.75  39 2.77  22 2.93
  20  0.573  0.584  0.704-  21 2.72  22 2.73  19 2.75   9 2.85   8 2.86  32 2.88  39 3.05
  21  0.560  0.467  0.726-  14 2.72  20 2.72  32 2.73   9 2.74  25 2.79  23 3.19
  22  0.527  0.592  0.594-  39 2.66  23 2.68  26 2.69  15 2.72  20 2.73  11 2.76  19 2.93  35 3.03
                             8 3.17  32 3.36  46 3.48
  23  0.491  0.481  0.606-  25 2.67  22 2.68  32 2.69  37 2.71  11 2.72  28 2.73  41 2.73  14 3.16
                            21 3.19
  24  0.540  0.718  0.453-   7 2.73  42 2.73  17 2.78  35 2.78  13 2.86  30 2.92  15 2.94  26 3.02

  25  0.475  0.392  0.681-  23 2.67  43 2.75  21 2.79  29 2.79  14 2.85  41 3.00  32 3.20
  26  0.476  0.607  0.489-  15 2.66  22 2.69  30 2.73  45 2.75  37 2.76  27 2.80  46 2.91  42 2.94
                            24 3.02  35 3.17  40 3.29
  27  0.543  0.513  0.446-  12 2.67  33 2.69  15 2.69  28 2.72  31 2.77  26 2.80  11 2.84  37 2.84
                             5 3.25  40 3.26   2 3.48  16 3.56
  28  0.522  0.415  0.511-  27 2.72  37 2.73  23 2.73  10 2.78  29 2.79  16 2.82  11 2.83  38 2.85
                            18 3.29  14 3.36
  29  0.505  0.320  0.587-  10 2.77  43 2.78  18 2.78  25 2.79  28 2.79  14 2.85  38 2.86
  30  0.459  0.652  0.378-  26 2.73  17 2.78  40 2.79  33 2.83  42 2.84  45 2.85  24 2.92
  31  0.499  0.445  0.355-  27 2.77  34 2.77  40 2.77  33 2.79  47 2.81  16 2.83  12 2.92
  32  0.459  0.529  0.709-  23 2.69  21 2.73  36 2.74  41 2.88  20 2.88  39 2.91  25 3.20  22 3.36

  33  0.535  0.561  0.339-  27 2.69  17 2.75  31 2.79  40 2.82  30 2.83   5 2.89  12 3.00
  34  0.466  0.331  0.382-  16 2.69  47 2.72  38 2.73  31 2.77  18 2.83
  35  0.498  0.719  0.568-  19 2.72  42 2.78  24 2.78  46 2.84  13 2.88  39 2.93  22 3.03  26 3.17

  36  0.364  0.584  0.659-  46 2.70  41 2.71  44 2.72  39 2.72  32 2.74
  37  0.433  0.495  0.502-  48 2.69  23 2.71  28 2.73  26 2.76  44 2.77  27 2.84  47 2.97  49 3.03
                            40 3.03  41 3.40  45 3.50  38 3.54
  38  0.423  0.340  0.493-  43 2.70  34 2.73  48 2.76  18 2.77  47 2.84  28 2.85  29 2.86  37 3.54

  39  0.462  0.651  0.671-  22 2.66  36 2.72  19 2.77  46 2.83  32 2.91  35 2.93  20 3.05
  40  0.420  0.535  0.376-  31 2.77  49 2.78  30 2.79  47 2.79  33 2.82  45 2.90  37 3.03  27 3.26
                            26 3.29
  41  0.376  0.467  0.637-  36 2.71  43 2.73  23 2.73  32 2.88  44 2.88  48 2.93  25 3.00  37 3.40

[...]

  47  0.389  0.420  0.405-  49 2.71  34 2.72  40 2.79  31 2.81  38 2.84  48 2.89  37 2.97
  48  0.341  0.424  0.522-  37 2.69  43 2.74  38 2.76  49 2.78  47 2.89  44 2.89  41 2.93
  49  0.318  0.510  0.438-  44 2.71  47 2.71  45 2.74  40 2.78  48 2.78  37 3.03

  LATTYP: Found a simple cubic cell.
 ALAT       =    22.7705955835

  Lattice vectors:

 A1 = (  22.7705955835,   0.0000000000,   0.0000000000)
 A2 = (   0.0000000000,  22.7705955835,   0.0000000000)
 A3 = (   0.0000000000,   0.0000000000,  22.7705955835)

Analysis of symmetry for initial positions (statically):
 Subroutine PRICEL returns:
 Original cell was already a primitive cell.

 Routine SETGRP: Setting up the symmetry group for a
 simple cubic supercell.

 Subroutine GETGRP returns: Found  1 space group operations
 (whereof  1 operations were pure point group operations)
 out of a pool of 48 trial point group operations.

The static configuration has the point symmetry C_1 .

Analysis of symmetry for dynamics (positions and initial velocities):
 Subroutine PRICEL returns:
 Original cell was already a primitive cell.

 Routine SETGRP: Setting up the symmetry group for a
 simple cubic supercell.

 Subroutine GETGRP returns: Found  1 space group operations
 (whereof  1 operations were pure point group operations)
 out of a pool of 48 trial point group operations.

The dynamic configuration has the point symmetry C_1 .

Analysis of magnetic symmetry:
 Subroutine PRICEL returns:
 Original cell was already a primitive cell.

 Subroutine MAGSYM returns: Found  1 space group operations
 (whereof  1 operations were pure point group operations)
 out of a pool of  1 trial space group operations
 (whereof  1 operations were pure point group operations)
 and found also     1 'primitive' translations

The magnetic configuration has the point symmetry C_1 .

 KPOINTS: Gamma-point only
  k-points in reciprocal lattice
Space group operators:
 irot       det(A)        alpha          n_x          n_y          n_z        tau_x        tau_y        tau_z
    1     1.000000     0.000000     1.000000     0.000000     0.000000     0.000000     0.000000     0.000000

 I would recommend the setting:
   dimension x,y,z NGX =    88 NGY =   88 NGZ =   88
 SYSTEM =  unknown system
 POSCAR =  Pt49, -251.42003616 <s> Ag </s>

 Startparameter for this run:
   NWRITE =      2    write-flag & timer
   PREC   = normal    normal or accurate (medium, high low for compatibility)
   ISTART =      0    job   : 0-new  1-cont  2-samecut
   ICHARG =      2    charge: 1-file 2-atom 10-const
   ISPIN  =      2    spin polarized calculation?
   LNONCOLLINEAR =      F non collinear calculations
   LSORBIT =      F    spin-orbit coupling
   INIWAV =      1    electr: 0-lowe 1-rand  2-diag
   LASPH  =      F    aspherical Exc in radial PAW
   METAGGA=      F    non-selfconsistent MetaGGA calc.

 Electronic Relaxation 1
   ENCUT  =  249.8 eV  18.36 Ry    4.29 a.u.  29.35 29.35 29.35*2*pi/ulx,y,z
   ENINI  =  249.8     initial cutoff
   ENAUG  =  412.5 eV  augmentation charge cutoff
   NELM   =     60;   NELMIN=  2; NELMDL= -5     # of ELM steps
   EDIFF  = 0.1E-03   stopping-criterion for ELM
   LREAL  =      F    real-space projection
   NLSPLINE    = F    spline interpolate recip. space projectors
   LCOMPAT=      F    compatible to vasp.4.4
   GGA_COMPAT  = T    GGA compatible to vasp.4.4-vasp.4.6
   LMAXPAW     = -100 max onsite density
   LMAXMIX     =    2 max onsite mixed and CHGCAR
   VOSKOWN=      0    Vosko Wilk Nusair interpolation
   ROPT   =    0.00000
 Ionic relaxation
   EDIFFG = 0.1E-02   stopping-criterion for IOM
   NSW    =   1000    number of steps for IOM
   NBLOCK =      1;   KBLOCK =   1000    inner block; outer block
   IBRION =      2    ionic relax: 0-MD 1-quasi-New 2-CG
   NFREE  =      1    steps in history (QN), initial steepest desc. (CG)
   ISIF   =      2    stress and relaxation
   IWAVPR =     11    prediction:  0-non 1-charg 2-wave 3-comb
   ISYM   =      2    0-nonsym 1-usesym 2-fastsym
   LCORR  =      T    Harris-Foulkes like correction to forces

   POTIM  = 0.1000    time-step for ionic-motion
   TEIN   =    0.0    initial temperature
   TEBEG  =    0.0;   TEEND  =   0.0 temperature during run
   SMASS  =  -3.00    Nose mass-parameter (am)
   estimated Nose-frequenzy (Omega)   =  0.10E-29 period in steps =****** mass=  -0.118E-25a.u.
   SCALEE = 1.0000    scale energy and forces
   NPACO  =    256;   APACO  = 16.0  distance and # of slots for P.C.
   PSTRESS=    0.0 pullay stress

  Mass of Ions in am
   POMASS = 107.87
  Ionic Valenz
   ZVAL   =  11.00
  Atomic Wigner-Seitz radii
  virtual crystal weights
   VCA    =   1.00
   NELECT =     539.0000    total number of electrons
   NUPDOWN=      -1.0000    fix difference up-down

 DOS related values:
   EMIN   =  10.00;   EMAX   =-10.00  energy-range for DOS
   EFERMI =   0.00
   ISMEAR =     0;   SIGMA  =   0.00  broadening in eV -4-tet -1-fermi 0-gaus

 Electronic relaxation 2 (details)
   IALGO  =     38    algorithm
   LDIAG  =      T    sub-space diagonalisation (order eigenvalues)
   LSUBROT=      F    optimize rotation matrix (better conditioning)
   TURBO    =      0    0=normal 1=particle mesh
   IRESTART =      0    0=no restart 2=restart with 2 vectors
   NREBOOT  =      0    no. of reboots
   NMIN     =      0    reboot dimension
   EREF     =   0.00    reference energy to select bands
   IMIX   =      4    mixing-type and parameters
     AMIX     =   0.40;   BMIX     =  1.00
     AMIX_MAG =   1.60;   BMIX_MAG =  1.00
     AMIN     =   0.10
     WC   =   100.;   INIMIX=   1;  MIXPRE=   1;  MAXMIX= -45

 Intra band minimization:
   WEIMIN = 0.0010     energy-eigenvalue tresh-hold
   EBREAK =  0.72E-07  absolut break condition
   DEPER  =   0.30     relativ break condition

   TIME   =   0.40     timestep for ELM

  volume/ion in A,a.u.               =     240.95      1626.01
  Fermi-wavevector in a.u.,A,eV,Ry     =   0.585100  1.105679  4.657844  0.342342
  Thomas-Fermi vector in A             =   1.631056

 Write flags
   LWAVE  =      F    write WAVECAR
   LCHARG =      F    write CHGCAR
   LVTOT  =      F    write LOCPOT, total local potential
[...]
       1 -82.0130       2 -82.1523       3 -81.9635       4 -81.9212       5 -82.0559
       6 -81.7964       7 -81.9862       8 -82.0221       9 -81.9758      10 -81.9097
      11 -82.2887      12 -82.0929      13 -81.9944      14 -82.0354      15 -82.2493
      16 -82.0130      17 -81.8717      18 -82.0710      19 -81.8897      20 -82.1409
      21 -82.2785      22 -82.3291      23 -82.3708      24 -82.0127      25 -82.0550
      26 -82.4739      27 -82.3098      28 -82.2947      29 -82.0412      30 -82.0310
      31 -82.2439      32 -82.2127      33 -82.2349      34 -82.0522      35 -82.2249
      36 -81.9686      37 -82.2418      38 -81.8650      39 -82.1473      40 -82.2702
      41 -81.9855      42 -82.0584      43 -81.7257      44 -82.1332      45 -82.1326
      46 -82.2120      47 -82.1241      48 -81.8982      49 -82.1197

 E-fermi :  -3.3263     XC(G=0):  -1.4104     alpha+bet : -0.9526

[...]

 spin component 2

 k-point     1 :       0.0000    0.0000    0.0000
  band No.  band energies     occupation
      1      -9.6838      1.00000
      2      -9.1915      1.00000
      3      -9.1051      1.00000
      4      -9.0388      1.00000
      5      -9.0310      1.00000
      6      -8.9891      1.00000
      7      -8.9497      1.00000
      8      -8.9183      1.00000
      9      -8.8771      1.00000
     10      -8.8668      1.00000
     11      -8.8318      1.00000
     12      -8.7893      1.00000
     13      -8.7779      1.00000
     14      -8.7618      1.00000
     15      -8.7405      1.00000
     16      -8.7202      1.00000
     17      -8.6788      1.00000
     18      -8.6675      1.00000
     19      -8.6665      1.00000
     20      -8.6408      1.00000
     21      -8.6339      1.00000
     22      -8.6150      1.00000
     23      -8.6035      1.00000
     24      -8.5870      1.00000
     25      -8.5785      1.00000
     26      -8.5673      1.00000
     27      -8.5520      1.00000
     28      -8.5320      1.00000
     29      -8.5277      1.00000
     30      -8.5115      1.00000
     31      -8.4908      1.00000
     32      -8.4713      1.00000
     33      -8.4609      1.00000
     34      -8.4458      1.00000
     35      -8.4372      1.00000
     36      -8.4330      1.00000
     37      -8.4093      1.00000
     38      -8.3944      1.00000
     39      -8.3747      1.00000
     40      -8.3577      1.00000
     41      -8.3548      1.00000
     42      -8.3408      1.00000
     43      -8.3183      1.00000
     44      -8.3136      1.00000
     45      -8.3047      1.00000
     46      -8.2824      1.00000
     47      -8.2789      1.00000
     48      -8.2676      1.00000
     49      -8.2568      1.00000
     50      -8.2305      1.00000
     51      -8.2280      1.00000
     52      -8.2239      1.00000
     53      -8.2063      1.00000
     54      -8.1961      1.00000
     55      -8.1883      1.00000
     56      -8.1712      1.00000
     57      -8.1503      1.00000
     58      -8.1436      1.00000
     59      -8.1292      1.00000
     60      -8.1172      1.00000
[...]
    334       1.2579      0.00000
    335       1.2812      0.00000
    336       1.2975      0.00000
    337       1.3223      0.00000
    338       1.3633      0.00000
    339       1.4150      0.00000
    340       1.4575      0.00000
    341       1.4735      0.00000
    342       1.4827      0.00000
    343       1.4977      0.00000
    344       1.5103      0.00000
    345       1.5308      0.00000
    346       1.5593      0.00000
    347       1.5874      0.00000
    348       1.5943      0.00000

[...]

 soft charge-density along one line, spin component           2
         0         1         2         3         4         5         6         7         8         9
 total charge-density along one line

------------------------ aborting loop because EDIFF is reached ----------------------------------------

  FORCE on cell =-STRESS in cart. coord.  units (eV):
  Direction    XX          YY          ZZ          XY          YZ          ZX
  Alpha Z   172.97493   172.97493   172.97493
  Ewald   47426.12795 58449.52006 34298.30486  5660.12610  -172.63867  -188.18123
  Hartree 63652.24056 74247.53780 51130.32166  5338.84732  -130.61952  -217.13310
  E(xc)   -2841.75506 -2841.34023 -2842.60215     0.38416    -0.16532     0.15249
  Local  ************************-93482.93288-11004.00009   301.92583   408.06837
  n-local  -500.95952  -500.17468  -504.10541     2.73796     0.00922     0.05894
  augment  4503.13347  4501.53768  4503.96175     0.33498     0.46914    -0.75211
  Kinetic  6706.13367  6703.10312  6707.00279     1.65553     1.11494    -1.79480
  Fock        0.00000     0.00000     0.00000     0.00000     0.00000     0.00000
  Total     -17.17401   -16.92976   -17.07444     0.08595     0.09562     0.41856
  in kB      -2.33055    -2.29741    -2.31704     0.01166     0.01298     0.05680

 VOLUME and BASIS-vectors are now :
  energy-cutoff  :      249.84
  volume of cell :    11806.55
      direct lattice vectors                 reciprocal lattice vectors
    22.770595584  0.000000000  0.000000000     0.043916287  0.000000000  0.000000000
     0.000000000 22.770595584  0.000000000     0.000000000  0.043916287  0.000000000
     0.000000000  0.000000000 22.770595584     0.000000000  0.000000000  0.043916287

  length of vectors
    22.770595584 22.770595584 22.770595584     0.043916287  0.043916287  0.043916287

 FORCES acting on ions
    electron-ion (+dipol)            ewald-force                    non-local-force                 convergence-correction
   -.171E+04 0.471E+02 -.489E+03   0.171E+04 -.466E+02 0.488E+03   0.426E+01 -.534E+00 0.691E+00   0.165E-01 0.267E-01 0.829E-02
   -.140E+04 0.181E+03 0.468E+03   0.140E+04 -.181E+03 -.468E+03   0.115E+01 0.234E+00 -.170E+00   0.108E-01 0.318E-02 -.618E-02
   -.164E+04 -.678E+03 0.141E+03   0.164E+04 0.677E+03 -.140E+03   0.405E+01 0.380E+00 -.828E+00   0.149E-01 -.261E-02 0.140E-02
   -.144E+04 0.873E+03 -.412E+03   0.144E+04 -.871E+03 0.410E+03   0.284E+01 -.143E+01 0.172E+01   -.142E-01 -.275E-01 -.436E-02
   -.118E+04 -.304E+03 0.123E+04   0.117E+04 0.304E+03 -.123E+04   0.222E+01 0.124E+00 -.201E+01   -.115E-02 0.211E-02 -.411E-01
   -.138E+04 0.834E+03 0.700E+03   0.138E+04 -.832E+03 -.699E+03   0.417E+01 -.161E+01 -.131E+01   0.133E-01 0.340E-02 -.394E-01
   -.106E+04 -.123E+04 0.712E+03   0.106E+04 0.123E+04 -.711E+03   0.279E+01 0.318E+01 -.138E+01   0.157E-01 0.259E-01 0.220E-02
   -.115E+04 -.812E+03 -.888E+03   0.114E+04 0.811E+03 0.887E+03   0.601E+00 0.380E+00 0.821E+00   0.101E-02 -.795E-02 0.340E-02
   -.113E+04 0.963E+02 -.141E+04   0.113E+04 -.943E+02 0.141E+04   0.359E+01 -.202E+01 0.353E+01   0.304E-02 0.141E-02 -.197E-01
   -.890E+03 0.138E+04 -.525E+02   0.889E+03 -.138E+04 0.526E+02   0.718E+00 -.126E+01 -.707E-01   0.623E-02 -.358E-01 -.201E-01
   -.778E+03 0.227E+03 -.594E+03   0.777E+03 -.227E+03 0.593E+03   0.483E+00 0.451E+00 0.123E+01   0.326E-02 -.707E-02 0.131E-01
   -.867E+03 0.367E+03 0.142E+04   0.866E+03 -.367E+03 -.142E+04   0.549E+00 -.175E+00 -.257E+01   0.834E-02 -.131E-01 -.178E-01
   -.783E+03 -.155E+04 -.282E+03   0.782E+03 0.155E+04 0.281E+03   0.173E+01 0.323E+01 0.361E+00   0.688E-02 0.277E-01 -.943E-02
   -.737E+03 0.119E+04 -.992E+03   0.737E+03 -.119E+04 0.990E+03   0.508E+00 -.165E+01 0.230E+01   -.353E-02 0.246E-02 -.268E-01
   -.607E+03 -.625E+03 0.160E+03   0.606E+03 0.623E+03 -.160E+03   0.778E+00 0.150E+01 -.523E+00   -.634E-01 -.302E-01 0.179E-01
   -.614E+03 0.112E+04 0.117E+04   0.613E+03 -.112E+04 -.117E+04   0.829E+00 -.229E+01 -.190E+01   -.142E-01 -.856E-02 -.961E-02
   -.372E+03 -.902E+03 0.147E+04   0.371E+03 0.900E+03 -.146E+04   0.861E+00 0.184E+01 -.413E+01   -.819E-02 0.756E-02 0.151E-02
   -.132E+03 0.172E+04 0.237E+03   0.131E+03 -.171E+04 -.237E+03   0.598E+00 -.519E+01 -.669E+00   0.184E-01 0.263E-01 0.734E-02
   -.327E+03 -.135E+04 -.113E+04   0.327E+03 0.135E+04 0.113E+04   0.273E+00 0.386E+01 0.297E+01   0.766E-02 -.395E-01 -.106E-01
   -.312E+03 -.501E+03 -.160E+04   0.313E+03 0.501E+03 0.159E+04   -.249E+00 0.300E+00 0.119E+01   -.356E-03 0.120E-01 0.101E-01
   -.407E+03 0.544E+03 -.164E+04   0.406E+03 -.543E+03 0.164E+04   0.729E+00 -.154E+01 0.329E+01   0.145E-01 0.137E-01 -.572E-02
   0.142E+03 -.399E+03 -.591E+03   -.141E+03 0.399E+03 0.590E+03   -.318E+00 0.935E-01 0.137E+01   0.489E-01 -.663E-02 -.796E-01
   0.153E+03 0.548E+03 -.599E+03   -.152E+03 -.547E+03 0.598E+03   -.442E+00 -.447E+00 0.111E+01   -.200E-01 0.136E-01 -.165E-01
   -.631E+02 -.158E+04 0.575E+03   0.633E+02 0.158E+04 -.574E+03   -.186E+00 0.139E+01 -.137E+01   0.433E-02 0.189E-01 -.166E-01
   0.367E+03 0.924E+03 -.151E+04   -.368E+03 -.922E+03 0.151E+04   0.599E+00 -.195E+01 0.433E+01   -.318E-01 -.196E-01 0.297E-02
   0.378E+03 -.659E+03 0.486E+03   -.378E+03 0.658E+03 -.485E+03   -.216E+00 0.773E+00 -.125E+01   0.707E-01 -.553E-01 0.914E-01
   -.280E+03 0.216E+03 0.434E+03   0.280E+03 -.216E+03 -.433E+03   0.132E+00 -.449E-02 -.111E+01   -.199E-01 0.486E-01 0.617E-02
   0.604E+02 0.851E+03 0.286E+03   -.604E+02 -.850E+03 -.285E+03   -.216E-01 -.151E+01 -.846E+00   0.717E-02 -.209E-01 0.234E-01
   0.720E+02 0.150E+04 -.721E+03   -.730E+02 -.150E+04 0.720E+03   0.104E+01 -.217E+01 0.159E+01   -.176E-01 -.932E-02 0.232E-01
   0.629E+03 -.941E+03 0.142E+04   -.626E+03 0.939E+03 -.141E+04   -.247E+01 0.176E+01 -.285E+01   -.812E-02 0.136E-01 -.153E-01
   0.158E+03 0.466E+03 0.159E+04   -.157E+03 -.466E+03 -.159E+04   -.118E+01 0.103E+00 -.250E+01   -.179E-01 0.434E-01 0.511E-02
   0.525E+03 -.381E+02 -.160E+04   -.525E+03 0.381E+02 0.159E+04   -.324E+00 0.435E-01 0.155E+01   0.925E-02 0.133E-01 -.162E-02
   -.120E+03 -.190E+03 0.158E+04   0.120E+03 0.189E+03 -.158E+04   0.719E+00 0.201E+00 -.896E+00   -.368E-02 -.904E-02 -.349E-03
   0.429E+03 0.122E+04 0.125E+04   -.428E+03 -.122E+04 -.125E+04   -.993E+00 -.310E+01 -.380E+01   0.226E-01 0.770E-03 0.212E-01
   0.248E+03 -.153E+04 -.430E+03   -.248E+03 0.153E+04 0.429E+03   0.172E-01 0.153E+01 0.102E+01   0.198E-01 -.163E-01 0.345E-01
   0.127E+04 -.536E+03 -.117E+04   -.127E+04 0.534E+03 0.117E+04   -.328E+01 0.139E+01 0.338E+01   0.276E-01 -.956E-02 -.602E-02
   0.792E+03 0.125E+03 0.124E+03   -.790E+03 -.125E+03 -.123E+03   -.167E+01 0.510E+00 -.474E+00   -.214E-01 0.508E-02 0.324E-02
   0.966E+03 0.141E+04 0.203E+03   -.964E+03 -.141E+04 -.202E+03   -.169E+01 -.213E+01 -.776E+00   -.247E-01 0.736E-02 0.658E-02
   0.571E+03 -.109E+04 -.132E+04   -.570E+03 0.109E+04 0.132E+04   -.170E+01 0.290E+01 0.274E+01   -.263E-01 0.215E-01 0.166E-01
   0.856E+03 -.107E+03 0.147E+04   -.855E+03 0.108E+03 -.147E+04   -.139E+01 -.328E+00 -.246E+01   -.128E-01 -.265E-01 0.222E-01
   0.123E+04 0.349E+03 -.101E+04   -.123E+04 -.349E+03 0.101E+04   -.377E+00 0.292E+00 0.813E+00   0.679E-02 0.201E-01 -.279E-01
   0.909E+03 -.156E+04 0.327E+03   -.907E+03 0.156E+04 -.327E+03   -.270E+01 0.443E+01 0.501E+00   -.198E-01 0.148E-01 -.703E-02
   0.106E+04 0.116E+04 -.780E+03   -.106E+04 -.116E+04 0.778E+03   -.233E+01 -.280E+01 0.208E+01   -.127E-01 0.125E-01 0.903E-02
   0.168E+04 -.309E+03 -.306E+03   -.168E+04 0.308E+03 0.306E+03   -.311E+01 0.464E+00 -.196E-01   -.122E-01 -.266E-01 0.159E-01
   0.145E+04 -.835E+03 0.645E+03   -.145E+04 0.834E+03 -.643E+03   -.220E+01 0.164E+01 -.141E+01   -.735E-02 -.512E-02 -.120E-01
   0.115E+04 -.106E+04 -.444E+03   -.115E+04 0.106E+04 0.444E+03   -.134E+01 0.992E+00 0.183E+00   0.125E-01 -.435E-01 0.237E-01
   0.110E+04 0.706E+03 0.108E+04   -.110E+04 -.706E+03 -.108E+04   -.803E+00 -.233E+00 -.165E+01   0.180E-01 0.876E-02 0.262E-01
   0.157E+04 0.701E+03 -.221E+02   -.156E+04 -.700E+03 0.227E+02   -.248E+01 -.101E+01 -.690E+00   0.726E-02 0.941E-02 0.334E-03
   0.162E+04 0.424E+02 0.818E+03   -.162E+04 -.424E+02 -.816E+03   -.438E+01 -.630E-01 -.224E+01   0.792E-02 0.279E-01 -.108E-02
   -.409E+00 -.551E+00 0.115E+01   0.250E-11 0.148E-11 -.193E-11   0.383E+00 0.545E+00 -.112E+01   0.422E-01 0.115E-01 0.251E-02

 POSITION                                       TOTAL-FORCE (eV/Angst)
     16.78361     12.20299     13.37755        -0.002439     -0.006249      0.001314
     15.46346     11.68470     10.94637        -0.001340     -0.000487      0.003225
     16.41922     14.42368     11.59625         0.007734      0.001438      0.003572
     15.85505      9.54941     12.73758         0.005085      0.011843      0.008716
     14.98034     13.52377      8.92695         0.003559     -0.005984      0.009503
     15.82388      9.02615      9.96131        -0.004865     -0.003695      0.022857
     15.12595     16.13369      9.79150        -0.006851     -0.005064     -0.000899
     15.15301     14.37314     14.13174         0.001318      0.000235      0.006224
     15.39427     12.13432     15.86168        -0.005708     -0.001543      0.005173
     14.09565      7.60919     11.66767        -0.012388      0.013229      0.014908
     14.02388     11.60259     13.43196        -0.008314      0.010908     -0.001874
     14.15942     10.79521      8.63897        -0.000991      0.003303      0.008790
     14.38501     16.53133     12.45472        -0.002802     -0.003507      0.007117
     13.53857      8.68322     14.10553         0.008533      0.000589      0.018286
     13.70622     13.99133     11.48712        -0.012183     -0.004873     -0.005974
     13.32173      8.10459      9.01016         0.005723     -0.001283      0.007025
     13.28406     15.46821      7.73094         0.009526     -0.001736      0.000918
     11.82932      6.19308     10.90938        -0.005852     -0.005866     -0.005816
     13.19571     16.15267     15.03257        -0.002796      0.009024     -0.000264
     12.98510     13.50718     15.84445         0.003502     -0.004255     -0.006164
     12.89566     10.69134     15.89273        -0.004132     -0.002951      0.005275
     11.60276     13.11267     13.26857        -0.016732      0.005219     -0.006818
     11.38854     10.33433     13.40702         0.007691     -0.001065     -0.004733
     12.41532     16.50164     10.16323         0.004213     -0.005702      0.001061
     10.44413      9.03648     15.61907         0.012178      0.004311      0.001623
     10.92338     13.97134     10.70981         0.003091     -0.012959      0.008708
     12.45871     11.53485     10.92224         0.004076      0.008530      0.005963
     11.40003      8.94095     11.00278        -0.007977      0.000181     -0.014401
     11.14075      7.37473     13.37117         0.014959      0.004547     -0.012825
     10.48951     15.13611      8.26617         0.001976      0.001391     -0.012978
     11.42728     10.16220      8.45596         0.003711     -0.012606     -0.010115
     10.46028     12.00036     15.70341        -0.010441     -0.004284     -0.000301
     12.28879     12.91675      8.31262         0.005767     -0.000063      0.004125
     10.56047      7.41416      8.76350        -0.004822     -0.002858     -0.011051
     11.61959     15.94554     12.76230        -0.004269      0.001941     -0.006256
      8.12780     13.34261     15.13122        -0.005977      0.003748     -0.004572
      9.63065     11.42813     11.49835         0.011601     -0.002294     -0.007650
      9.12043      7.23030     11.31356         0.011184     -0.003715     -0.003138
     10.59854     14.86227     15.26304         0.004446     -0.001192     -0.006164
      9.58190     12.29483      8.76048         0.002776      0.002328     -0.011116
      8.41207     10.59119     14.37692        -0.007917     -0.006242      0.010899
      9.65291     16.44585     10.68034        -0.003133      0.011174      0.000019
      8.45185      7.85973     13.95561         0.012398     -0.004148     -0.004939
      7.24601     12.43953     12.60829         0.012631      0.007519     -0.005575
      8.09279     14.13006     10.28808        -0.010620     -0.004459     -0.000430
      9.12216     14.55633     12.86078        -0.009041      0.022758     -0.000953
      8.85439      9.45075      9.53029        -0.007177     -0.003538     -0.010268
      7.42644      9.52562     11.96339         0.001496     -0.001340      0.000168
      7.10767     11.54316      9.96896        -0.000404     -0.010256     -0.000196
    total drift:                                0.015699      0.005679      0.028671

  FREE ENERGIE OF THE ION-ELECTRON SYSTEM (eV)
  free  energy   TOTEN  =      -107.17362338 eV

  energy  without entropy=     -107.17362338  energy(sigma->0) =     -107.17362338

 d Force = 0.3746276E-03[-0.452E-03, 0.120E-02]  d Energy = 0.3176950E-03 0.569E-04
 d Force = 0.4474124E+00[ 0.430E+00, 0.465E+00]  d Ewald  = 0.4474243E+00-0.119E-04

 reached required accuracy - stopping structural energy minimisation