 vasp.5.3.5 31Mar14 (build Feb 01 2018 12:10:03) gamma-only

 executed on             LinuxIFC date 2019.03.23  18:55:17

 INCAR:
 POTCAR:    PAW_PBE Ag 02Apr2005
 POTCAR:    PAW_PBE Ag 02Apr2005
   VRHFIN =Ag : s1 d10

   TITEL  = PAW_PBE Ag 02Apr2005
   POMASS =  107.868; ZVAL   =   11.000    mass and valenz
   ENMAX  =  249.844; ENMIN  =  187.383 eV

  PAW_PBE Ag 02Apr2005                  :

 POSCAR: Pt44, -221.54838479 <s> Ag </s>
  positions in direct lattice
 exchange correlation table for  LEXCH =        8
   RHO(1)=    0.500       N(1)  =     2000
   RHO(2)=  100.500       N(2)  =     4000

 ion  position               nearest neighbor table
   1  0.674  0.564  0.501-  23 2.74  34 2.77  16 2.77   5 2.78  41 2.80  27 2.80  10 2.80  44 3.36

   2  0.507  0.606  0.342-  44 2.75  20 2.75  32 2.80  19 2.81  13 2.82  12 2.82  16 2.88
   3  0.551  0.357  0.561-  35 2.74  41 2.76  43 2.77   4 2.78   8 2.82  37 2.84  36 2.85  30 3.40

[...]

  20  0.541  0.707  0.406-  12 2.73   2 2.75  40 2.76  16 2.77  23 2.79
  21  0.356  0.436  0.598-  35 2.71   9 2.74  39 2.76  17 2.78  24 2.79   4 2.87  30 3.22
  22  0.585  0.433  0.369-  32 2.65  36 2.78  13 2.78  34 2.80  44 2.84  28 2.84  14 2.86  43 3.35
                            41 3.45  31 3.51
  23  0.603  0.666  0.507-   7 2.71  16 2.73   1 2.74   5 2.77  20 2.79  40 2.84  33 2.95
  24  0.292  0.524  0.663-  17 2.72  39 2.74  21 2.79   6 2.87  18 3.41
  25  0.549  0.625  0.699-  18 2.76  38 2.77   7 2.79  15 2.79  42 2.82   5 2.83  26 3.18
  26  0.513  0.489  0.730-   8 2.71  18 2.72  17 2.77  35 2.85  15 2.86  38 3.03  25 3.18
  27  0.694  0.498  0.607-   5 2.76  15 2.79  10 2.80   1 2.80  37 2.82   8 2.94  41 2.95  38 3.41

  28  0.613  0.308  0.364-  36 2.69  43 2.71  14 2.74  22 2.84
  29  0.373  0.678  0.539-  39 2.76  11 2.79  12 2.80  42 2.81   6 2.82  40 2.89  33 3.01
  30  0.472  0.483  0.525-   4 2.67  33 2.70  44 2.70  38 2.73   9 2.76  41 2.80  35 2.95  39 3.00
                            21 3.22  31 3.38   3 3.40  19 3.48
  31  0.430  0.412  0.396-  36 2.66  32 2.74   9 2.76  19 2.78   4 2.87  30 3.38  22 3.51
  32  0.490  0.483  0.315-  22 2.65  19 2.66  31 2.74   2 2.80  13 2.81  44 3.11
  33  0.486  0.604  0.523-  38 2.68  30 2.70  40 2.74  12 2.74  44 2.76  23 2.95  39 3.01  29 3.01
                            42 3.11
  34  0.685  0.508  0.390-  14 2.67  16 2.71  13 2.76   1 2.77  10 2.79  22 2.80  44 3.40  41 3.60

  35  0.469  0.411  0.637-  21 2.71   3 2.74   8 2.78  17 2.78  26 2.85   4 2.88  30 2.95  38 3.37

  36  0.523  0.347  0.436-  31 2.66  28 2.69   4 2.75  22 2.78  43 2.81   3 2.85
  37  0.675  0.373  0.590-  43 2.67   8 2.68  27 2.82  10 2.83   3 2.84  41 3.08
  38  0.545  0.540  0.607-  33 2.68   5 2.71  30 2.73  41 2.76  25 2.77   8 2.89  18 2.93  26 3.03
                            15 3.06  35 3.37  27 3.41
  39  0.368  0.557  0.571-  24 2.74  11 2.76  29 2.76  21 2.76   6 2.77   9 2.82  18 2.83  30 3.00
                            33 3.01
  40  0.492  0.728  0.519-  33 2.74  20 2.76   7 2.77  42 2.83  23 2.84  12 2.88  29 2.89
  41  0.597  0.466  0.521-  44 2.69  38 2.76   3 2.76  10 2.80   1 2.80  30 2.80  27 2.95  43 3.02
                            37 3.08   8 3.14  22 3.45  34 3.60
  42  0.457  0.685  0.634-   7 2.67  18 2.72   6 2.76  29 2.81  25 2.82  40 2.83  33 3.11
  43  0.643  0.345  0.477-  37 2.67  28 2.71  14 2.73   3 2.77  36 2.81  10 2.84  41 3.02  22 3.35

  44  0.541  0.533  0.436-  41 2.69  30 2.70  16 2.73   2 2.75  33 2.76  22 2.84  19 3.03  32 3.11
                             1 3.36  13 3.36  34 3.40

  LATTYP: Found a simple cubic cell.
 ALAT       =    22.1167666751

  Lattice vectors:

 A1 = (  22.1167666751,   0.0000000000,   0.0000000000)
 A2 = (   0.0000000000,  22.1167666751,   0.0000000000)
 A3 = (   0.0000000000,   0.0000000000,  22.1167666751)

Analysis of symmetry for initial positions (statically):
 Subroutine PRICEL returns:
 Original cell was already a primitive cell.

 Routine SETGRP: Setting up the symmetry group for a
 simple cubic supercell.

 Subroutine GETGRP returns: Found  1 space group operations
 (whereof  1 operations were pure point group operations)
 out of a pool of 48 trial point group operations.

The static configuration has the point symmetry C_1 .

Analysis of symmetry for dynamics (positions and initial velocities):
 Subroutine PRICEL returns:
 Original cell was already a primitive cell.

 Routine SETGRP: Setting up the symmetry group for a
 simple cubic supercell.

 Subroutine GETGRP returns: Found  1 space group operations
 (whereof  1 operations were pure point group operations)
 out of a pool of 48 trial point group operations.

The dynamic configuration has the point symmetry C_1 .

Analysis of magnetic symmetry:
 Subroutine PRICEL returns:
 Original cell was already a primitive cell.

 Subroutine MAGSYM returns: Found  1 space group operations
 (whereof  1 operations were pure point group operations)
 out of a pool of  1 trial space group operations
 (whereof  1 operations were pure point group operations)
 and found also     1 'primitive' translations

The magnetic configuration has the point symmetry C_1 .

 KPOINTS: Gamma-point only
  k-points in reciprocal lattice
Space group operators:
 irot       det(A)        alpha          n_x          n_y          n_z        tau_x        tau_y        tau_z
    1     1.000000     0.000000     1.000000     0.000000     0.000000     0.000000     0.000000     0.000000

 I would recommend the setting:
   dimension x,y,z NGX =    86 NGY =   86 NGZ =   86
 SYSTEM =  unknown system
 POSCAR =  Pt44, -221.54838479 <s> Ag </s>

 Startparameter for this run:
   NWRITE =      2    write-flag & timer
   PREC   = normal    normal or accurate (medium, high low for compatibility)
   ISTART =      0    job   : 0-new  1-cont  2-samecut
   ICHARG =      2    charge: 1-file 2-atom 10-const
   ISPIN  =      2    spin polarized calculation?
   LNONCOLLINEAR =      F non collinear calculations
   LSORBIT =      F    spin-orbit coupling
   INIWAV =      1    electr: 0-lowe 1-rand  2-diag
   LASPH  =      F    aspherical Exc in radial PAW
   METAGGA=      F    non-selfconsistent MetaGGA calc.

 Electronic Relaxation 1
   ENCUT  =  249.8 eV  18.36 Ry    4.29 a.u.  28.50 28.50 28.50*2*pi/ulx,y,z
   ENINI  =  249.8     initial cutoff
   ENAUG  =  412.5 eV  augmentation charge cutoff
   NELM   =     60;   NELMIN=  2; NELMDL= -5     # of ELM steps
   EDIFF  = 0.1E-03   stopping-criterion for ELM
   LREAL  =      F    real-space projection
   NLSPLINE    = F    spline interpolate recip. space projectors
   LCOMPAT=      F    compatible to vasp.4.4
   GGA_COMPAT  = T    GGA compatible to vasp.4.4-vasp.4.6
   LMAXPAW     = -100 max onsite density
   LMAXMIX     =    2 max onsite mixed and CHGCAR
   VOSKOWN=      0    Vosko Wilk Nusair interpolation
   ROPT   =    0.00000
 Ionic relaxation
   EDIFFG = 0.1E-02   stopping-criterion for IOM
   NSW    =   1000    number of steps for IOM
   NBLOCK =      1;   KBLOCK =   1000    inner block; outer block
   IBRION =      2    ionic relax: 0-MD 1-quasi-New 2-CG
   NFREE  =      1    steps in history (QN), initial steepest desc. (CG)
   ISIF   =      2    stress and relaxation
   IWAVPR =     11    prediction:  0-non 1-charg 2-wave 3-comb
   ISYM   =      2    0-nonsym 1-usesym 2-fastsym
   LCORR  =      T    Harris-Foulkes like correction to forces

   POTIM  = 0.1000    time-step for ionic-motion
   TEIN   =    0.0    initial temperature
   TEBEG  =    0.0;   TEEND  =   0.0 temperature during run
   SMASS  =  -3.00    Nose mass-parameter (am)
   estimated Nose-frequenzy (Omega)   =  0.10E-29 period in steps =****** mass=  -0.112E-25a.u.
   SCALEE = 1.0000    scale energy and forces
   NPACO  =    256;   APACO  = 16.0  distance and # of slots for P.C.
   PSTRESS=    0.0 pullay stress

  Mass of Ions in am
   POMASS = 107.87
  Ionic Valenz
   ZVAL   =  11.00
  Atomic Wigner-Seitz radii
  virtual crystal weights
   VCA    =   1.00
   NELECT =     484.0000    total number of electrons
   NUPDOWN=      -1.0000    fix difference up-down

 DOS related values:
   EMIN   =  10.00;   EMAX   =-10.00  energy-range for DOS
   EFERMI =   0.00
   ISMEAR =     0;   SIGMA  =   0.00  broadening in eV -4-tet -1-fermi 0-gaus

 Electronic relaxation 2 (details)
   IALGO  =     38    algorithm
   LDIAG  =      T    sub-space diagonalisation (order eigenvalues)
   LSUBROT=      F    optimize rotation matrix (better conditioning)
   TURBO    =      0    0=normal 1=particle mesh
   IRESTART =      0    0=no restart 2=restart with 2 vectors
   NREBOOT  =      0    no. of reboots
   NMIN     =      0    reboot dimension
   EREF     =   0.00    reference energy to select bands
   IMIX   =      4    mixing-type and parameters
     AMIX     =   0.40;   BMIX     =  1.00
     AMIX_MAG =   1.60;   BMIX_MAG =  1.00
     AMIN     =   0.10
     WC   =   100.;   INIMIX=   1;  MIXPRE=   1;  MAXMIX= -45

 Intra band minimization:
   WEIMIN = 0.0010     energy-eigenvalue tresh-hold
   EBREAK =  0.80E-07  absolut break condition
   DEPER  =   0.30     relativ break condition

   TIME   =   0.40     timestep for ELM

  volume/ion in A,a.u.               =     245.87      1659.24
  Fermi-wavevector in a.u.,A,eV,Ry     =   0.581168  1.098248  4.595452  0.337756
  Thomas-Fermi vector in A             =   1.625566

 Write flags
   LWAVE  =      F    write WAVECAR
   LCHARG =      F    write CHGCAR
   LVTOT  =      F    write LOCPOT, total local potential
   LVHAR  =      F    write LOCPOT, Hartree potential only
   LELF   =      F    write electronic localiz. function (ELF)
   LORBIT =      0    0 simple, 1 ext, 2 COOP (PROOUT)

 Dipole corrections
   LMONO  =      F    monopole corrections only (constant potential shift)
   LDIPOL =      F    correct potential (dipole corrections)
   IDIPOL =      0    1-x, 2-y, 3-z, 4-all directions
   EPSILON=  1.0000000 bulk dielectric constant

 Exchange correlation treatment:
   GGA     =    PE    GGA type
   VOSKOWN=      0    Vosko Wilk Nusair interpolation
   LHFCALC =     F    Hartree Fock is set to
   LHFONE  =     F    Hartree Fock one center treatment
   AEXX    =    0.0000 exact exchange contribution

 Linear response parameters
   LEPSILON=     F    determine dielectric tensor
   LRPA    =     F    only Hartree local field effects (RPA)
   LNABLA  =     F    use nabla operator in PAW spheres
   LVEL    =     F    velocity operator in full k-point grid
   LINTERFAST=   F  fast interpolation
   KINTER  =     0    interpolate to denser k-point grid
   CSHIFT  =0.1000    complex shift for real part using Kramers Kronig
   OMEGAMAX=  -1.0    maximum frequency
   DEG_THRESHOLD= 0.2000000E-02 threshold for treating states as degnerate
   RTIME   =    0.100 relaxation time in fs

 Orbital magnetization related:
   ORBITALMAG=     F  switch on orbital magnetization
   LCHIMAG   =     F  perturbation theory with respect to B field
   DQ        =  0.001000  dq finite difference perturbation B field

 conjugate gradient relaxation of ions
 charge density and potential will be updated during run
 spin polarized calculation
 Variant of blocked Davidson
[...]
  rms(prec ) = 0.19889E-02
  weight for this iteration     100.00

[...]

----------------------------------------- Iteration   44(   2)  ---------------------------------------

 eigenvalue-minimisations  :   752
 total energy-change (2. order) :-0.1247918E-04  (-0.1457358E-04)
 number of electron     483.9999202 magnetization       0.0000000
 augmentation part      232.1395682 magnetization      -0.0000001

 Free energy of the ion-electron system (eV)
  alpha Z        PSCENC =       152.21400914
  Ewald energy   TEWEN  =    114481.73186609
  -Hartree energ DENC   =   -158351.03703887
  -exchange      EXHF   =         0.00000000
  -V(xc)+E(xc)   XCENC  =      -498.11346090
  PAW double counting   =     47617.54286184   -45670.43301392
  entropy T*S    EENTRO =         0.00000000
  eigenvalues    EBANDS =     -3463.30954030
  atomic energy  EATOM  =     45636.73972380
  free energy    TOTEN  =       -94.66459312 eV

  energy without entropy =      -94.66459312  energy(sigma->0) =      -94.66459312

 average (electrostatic) potential at core
  the test charge radii are     1.1249
  (the norm of the test charge is              1.0000)
       1 -82.1807       2 -82.0225       3 -82.0664       4 -82.1891       5 -82.1451
       6 -81.8442       7 -81.9995       8 -82.0708       9 -82.2005      10 -82.0275
      11 -81.8631      12 -82.0851      13 -82.1026      14 -81.8087      15 -82.1311
      16 -82.1364      17 -82.0360      18 -82.1878      19 -82.2263      20 -81.9401
      21 -82.2368      22 -82.1242      23 -82.0633      24 -81.9794      25 -82.0815
      26 -82.1673      27 -82.2040      28 -81.8138      29 -81.9818      30 -82.4434
      31 -82.2486      32 -82.0079      33 -82.0211      34 -81.9447      35 -82.2139
      36 -82.0099      37 -82.1039      38 -82.3520      39 -82.1666      40 -82.1342
      41 -82.1835      42 -81.8950      43 -82.0511      44 -82.2106

 E-fermi :  -3.2891     XC(G=0):  -1.4074     alpha+bet : -0.9335

[...]

 spin component 2

 k-point     1 :       0.0000    0.0000    0.0000
  band No.  band energies     occupation
      1      -9.5607      1.00000
      2      -9.0684      1.00000
      3      -9.0059      1.00000
      4      -8.9842      1.00000
      5      -8.9541      1.00000
      6      -8.8839      1.00000
      7      -8.8688      1.00000
      8      -8.8307      1.00000
      9      -8.7996      1.00000
     10      -8.7923      1.00000
     11      -8.7627      1.00000
     12      -8.7395      1.00000
     13      -8.7324      1.00000
     14      -8.7137      1.00000
     15      -8.6901      1.00000
     16      -8.6814      1.00000
     17      -8.6580      1.00000
     18      -8.6496      1.00000
     19      -8.6215      1.00000
     20      -8.6089      1.00000
     21      -8.5906      1.00000
     22      -8.5630      1.00000
     23      -8.5572      1.00000
     24      -8.5440      1.00000
     25      -8.5160      1.00000
     26      -8.5062      1.00000
     27      -8.4945      1.00000
     28      -8.4730      1.00000
     29      -8.4664      1.00000
     30      -8.4475      1.00000
     31      -8.4340      1.00000
     32      -8.4188      1.00000
     33      -8.4078      1.00000
     34      -8.3932      1.00000
     35      -8.3838      1.00000
     36      -8.3743      1.00000
     37      -8.3567      1.00000
     38      -8.3447      1.00000
     39      -8.3176      1.00000
     40      -8.3108      1.00000
     41      -8.3061      1.00000
     42      -8.2963      1.00000
     43      -8.2767      1.00000
     44      -8.2615      1.00000
     45      -8.2461      1.00000
     46      -8.2446      1.00000
     47      -8.2312      1.00000
     48      -8.2141      1.00000
     49      -8.1943      1.00000
     50      -8.1859      1.00000
     51      -8.1679      1.00000
     52      -8.1590      1.00000
     53      -8.1457      1.00000
     54      -8.1249      1.00000
     55      -8.1211      1.00000
     56      -8.1090      1.00000
     57      -8.0950      1.00000
     58      -8.0716      1.00000
     59      -8.0456      1.00000
     60      -8.0348      1.00000
[...]
    298       1.2010      0.00000
    299       1.2128      0.00000
    300       1.2441      0.00000
    301       1.2501      0.00000
    302       1.2658      0.00000
    303       1.2887      0.00000
    304       1.3001      0.00000
    305       1.3120      0.00000
    306       1.3311      0.00000
    307       1.3395      0.00000
    308       1.4068      0.00000
    309       1.4279      0.00000
    310       1.4811      0.00000
    311       1.4940      0.00000
    312       1.5020      0.00000

[...]

 soft charge-density along one line, spin component           2
         0         1         2         3         4         5         6         7         8         9
 total charge-density along one line

------------------------ aborting loop because EDIFF is reached ----------------------------------------

  FORCE on cell =-STRESS in cart. coord.  units (eV):
  Direction    XX          YY          ZZ          XY          YZ          ZX
  Alpha Z   152.21401   152.21401   152.21401
  Ewald   35456.31920 39822.75181 39202.55548 -9177.73980  2706.13036 -7432.79229
  Hartree 50260.26608 54380.41695 53710.41937 -8582.39676  2539.85806 -6886.97081
  E(xc)   -2552.05681 -2551.66821 -2551.36484    -0.89984     0.30322    -0.94532
  Local  -92946.31142************************ 17758.96485 -5248.67086 14317.06303
  n-local  -454.94967  -454.60100  -454.77391    -2.57027     1.48084    -1.70790
  augment  4044.16737  4043.00932  4041.92056     1.74000     0.10259     1.69739
  Kinetic  6025.00248  6022.20226  6020.10575     2.84165     0.88590     3.70720
  Fock        0.00000     0.00000     0.00000     0.00000     0.00000     0.00000
  Total     -15.34878   -15.71965   -15.67435    -0.06017     0.09011     0.05129
  in kB      -2.27310    -2.32803    -2.32132    -0.00891     0.01335     0.00760

 VOLUME and BASIS-vectors are now :
  energy-cutoff  :      249.84
  volume of cell :    10818.45
      direct lattice vectors                 reciprocal lattice vectors
    22.116766675  0.000000000  0.000000000     0.045214566  0.000000000  0.000000000
     0.000000000 22.116766675  0.000000000     0.000000000  0.045214566  0.000000000
     0.000000000  0.000000000 22.116766675     0.000000000  0.000000000  0.045214566

  length of vectors
    22.116766675 22.116766675 22.116766675     0.045214566  0.045214566  0.045214566

 FORCES acting on ions
    electron-ion (+dipol)            ewald-force                    non-local-force                 convergence-correction
   -.127E+04 -.515E+03 0.939E+02   0.127E+04 0.515E+03 -.936E+02   0.317E+00 -.622E-01 -.261E+00   -.155E-01 -.105E-01 0.726E-02
   0.219E+03 -.747E+03 0.146E+04   -.218E+03 0.747E+03 -.145E+04   -.165E+00 0.360E+00 -.283E+01   0.283E-02 0.630E-03 0.113E-02
   -.381E+02 0.157E+04 -.560E+03   0.379E+02 -.156E+04 0.559E+03   0.191E+00 -.285E+01 0.149E+01   0.350E-02 -.209E-02 0.391E-02
   0.911E+03 0.143E+04 -.141E+02   -.909E+03 -.142E+04 0.144E+02   -.254E+01 -.267E+01 -.289E+00   0.739E-02 -.253E-02 -.114E-01
   -.126E+04 -.876E+03 -.651E+03   0.126E+04 0.875E+03 0.649E+03   0.262E+01 0.140E+01 0.150E+01   0.378E-02 0.531E-02 -.194E-02
   0.117E+04 -.839E+03 -.835E+03   -.117E+04 0.837E+03 0.832E+03   -.316E+01 0.207E+01 0.333E+01   -.281E-03 0.570E-02 0.775E-02
   -.560E+03 -.143E+04 -.713E+03   0.557E+03 0.143E+04 0.712E+03   0.294E+01 0.376E+01 0.729E+00   -.182E-02 0.546E-02 -.862E-02
   -.619E+03 0.913E+03 -.127E+04   0.618E+03 -.911E+03 0.127E+04   0.228E+00 -.103E+01 0.247E+01   -.680E-02 0.358E-03 -.833E-02
   0.149E+04 0.669E+03 0.599E+03   -.149E+04 -.666E+03 -.597E+03   -.375E+01 -.228E+01 -.217E+01   -.666E-02 -.731E-02 0.148E-04
   -.158E+04 0.320E+03 0.597E+02   0.158E+04 -.320E+03 -.599E+02   0.263E+01 0.524E+00 0.238E+00   0.105E-01 -.106E-01 0.865E-02
   0.146E+04 -.427E+03 0.766E+03   -.146E+04 0.426E+03 -.763E+03   -.433E+01 0.115E+01 -.272E+01   -.728E-02 0.416E-02 0.423E-03
   0.727E+03 -.110E+04 0.914E+03   -.726E+03 0.110E+04 -.913E+03   -.110E+01 0.198E+01 -.102E+01   0.599E-02 -.104E-01 0.351E-02
   -.536E+03 -.157E+03 0.160E+04   0.534E+03 0.156E+03 -.159E+04   0.191E+01 0.405E+00 -.407E+01   0.776E-02 -.148E-03 -.350E-02
   -.120E+04 0.629E+03 0.921E+03   0.120E+04 -.627E+03 -.917E+03   0.325E+01 -.229E+01 -.318E+01   -.248E-02 0.156E-03 -.102E-02
   -.995E+03 -.170E+03 -.143E+04   0.992E+03 0.170E+03 0.143E+04   0.301E+01 -.137E+00 0.359E+01   0.296E-02 0.140E-02 0.617E-02
   -.101E+04 -.945E+03 0.903E+03   0.101E+04 0.943E+03 -.901E+03   0.233E+01 0.253E+01 -.196E+01   0.612E-02 0.183E-02 -.131E-02
   0.726E+03 0.654E+03 -.138E+04   -.724E+03 -.652E+03 0.138E+04   -.147E+01 -.185E+01 0.445E+01   -.649E-03 -.197E-02 0.104E-01
   0.573E+03 -.270E+03 -.102E+04   -.571E+03 0.271E+03 0.102E+04   -.160E+01 -.470E+00 0.884E+00   0.469E-02 -.822E-02 0.100E-01
   0.945E+03 -.108E+03 0.105E+04   -.944E+03 0.108E+03 -.105E+04   -.100E+01 -.290E+00 -.105E+00   -.114E-01 -.238E-02 -.615E-02
   -.282E+03 -.141E+04 0.864E+03   0.281E+03 0.141E+04 -.861E+03   0.891E+00 0.355E+01 -.241E+01   0.857E-02 -.114E-02 -.113E-02
   0.130E+04 0.916E+03 -.427E+03   -.130E+04 -.915E+03 0.427E+03   -.239E+01 -.116E+01 0.541E+00   -.377E-02 -.527E-02 0.546E-02
   -.247E+03 0.629E+03 0.111E+04   0.247E+03 -.629E+03 -.111E+04   0.771E+00 -.256E-01 -.291E+00   -.181E-02 -.264E-02 -.706E-02
   -.901E+03 -.120E+04 0.114E+03   0.901E+03 0.120E+04 -.113E+03   -.221E-01 0.474E+00 -.305E+00   0.612E-02 0.271E-02 -.333E-03
   0.136E+04 0.781E+02 -.930E+03   -.136E+04 -.777E+02 0.928E+03   -.444E+01 -.362E+00 0.242E+01   0.581E-02 0.602E-02 0.583E-02
   -.202E+03 -.812E+03 -.142E+04   0.202E+03 0.811E+03 0.141E+04   0.292E+00 0.782E+00 0.253E+01   0.169E-01 0.129E-01 0.740E-04
   -.125E+02 0.236E+03 -.167E+04   0.120E+02 -.236E+03 0.166E+04   0.474E+00 -.387E+00 0.331E+01   0.178E-02 0.548E-02 0.443E-02
   -.150E+04 0.552E+02 -.696E+03   0.150E+04 -.554E+02 0.695E+03   0.261E+01 0.211E+00 0.157E+01   -.199E-02 0.702E-02 0.708E-02
   -.237E+03 0.118E+04 0.101E+04   0.237E+03 -.118E+04 -.101E+04   -.115E+00 -.415E+01 -.487E+01   0.293E-03 -.601E-02 0.340E-02
   0.111E+04 -.122E+04 0.614E+02   -.110E+04 0.122E+04 -.602E+02   -.187E+01 0.207E+01 -.118E+01   -.480E-02 0.327E-02 0.536E-02
   0.487E+03 0.311E+03 0.563E+01   -.486E+03 -.310E+03 -.544E+01   -.789E+00 -.116E+01 -.187E+00   -.131E-02 0.156E-02 -.112E-01
   0.773E+03 0.905E+03 0.944E+03   -.773E+03 -.904E+03 -.944E+03   -.126E+00 -.875E+00 -.298E+00   -.107E-01 0.194E-02 -.208E-01
   0.561E+03 0.333E+03 0.160E+04   -.558E+03 -.332E+03 -.159E+04   -.302E+01 -.983E+00 -.339E+01   0.995E-03 0.835E-02 -.582E-02
   0.174E+03 -.655E+03 -.107E+02   -.175E+03 0.654E+03 0.107E+02   0.116E+01 0.142E+01 -.567E-01   -.403E-02 -.122E-01 0.384E-02
   -.136E+04 -.233E+03 0.873E+03   0.136E+04 0.231E+03 -.872E+03   0.197E+01 0.166E+01 -.328E+00   -.351E-02 0.127E-02 0.180E-01
   0.332E+03 0.110E+04 -.940E+03   -.332E+03 -.110E+04 0.939E+03   -.227E+00 -.288E+00 0.683E+00   -.717E-02 0.696E-02 -.569E-02
   0.386E+03 0.149E+04 0.495E+03   -.386E+03 -.148E+04 -.495E+03   -.696E+00 -.270E+01 -.559E+00   0.876E-02 0.148E-01 0.232E-02
   -.115E+04 0.110E+04 -.676E+03   0.115E+04 -.110E+04 0.673E+03   0.318E+01 -.190E+01 0.312E+01   -.175E-03 0.577E-03 0.488E-02
   -.343E+03 -.101E+03 -.602E+03   0.341E+03 0.100E+03 0.601E+03   0.166E+01 0.583E+00 0.690E+00   -.671E-02 0.733E-02 -.451E-02
   0.142E+04 -.149E+03 -.492E+02   -.142E+04 0.148E+03 0.492E+02   0.258E+00 0.885E-01 -.781E-01   -.130E-01 -.223E-02 0.394E-02
   0.129E+03 -.165E+04 0.693E+02   -.129E+03 0.164E+04 -.699E+02   -.222E+00 0.435E+01 0.592E+00   -.471E-02 -.125E-01 -.451E-02
   -.408E+03 0.560E+03 -.247E+02   0.408E+03 -.558E+03 0.236E+02   0.134E+00 -.195E+01 0.114E+01   -.484E-02 -.103E-02 -.148E-01
   0.425E+03 -.126E+04 -.941E+03   -.424E+03 0.126E+04 0.940E+03   -.114E+01 0.757E+00 0.875E+00   0.298E-02 -.110E-01 -.193E-02
   -.798E+03 0.135E+04 0.140E+03   0.798E+03 -.135E+04 -.139E+03   0.147E+00 -.233E+01 -.639E+00   0.787E-02 -.978E-03 -.221E-02
   -.171E+03 -.163E+03 0.618E+03   0.171E+03 0.162E+03 -.617E+03   0.395E+00 0.102E+01 -.123E+01   0.280E-02 0.248E-02 -.132E-01
   0.831E+00 0.114E+01 -.174E+01   -.142E-12 -.111E-11 0.114E-12   -.788E+00 -.104E+01 0.171E+01   -.298E-02 -.335E-02 -.116E-01

 POSITION                                       TOTAL-FORCE (eV/Angst)
     14.47014     12.32567     11.07585        -0.012633     -0.001253      0.000172
     11.24655     13.60764      7.59666        -0.000044      0.001854     -0.001588
     12.26392      7.33544     12.59787         0.001284      0.003422      0.003485
      9.65411      8.07475     11.65605         0.001307      0.005202     -0.004566
     14.30857     13.71853     13.55667         0.003504      0.004691     -0.000233
      7.28095     14.38765     14.33186         0.000652      0.006019     -0.001132
     12.51117     15.91922     13.71796        -0.000062      0.007743     -0.004417
     13.32416      9.26909     14.76646        -0.007553      0.008033     -0.002903
      7.77260     10.33524     10.48674        -0.001905     -0.000146      0.005735
     15.78163      9.72423     10.77396         0.007657      0.000242      0.012115
      7.05553     13.40791      9.80532         0.000811      0.004188      0.007877
      9.51027     14.85973      9.42575         0.005680     -0.002067      0.002216
     13.29044     11.74379      6.86937         0.008251     -0.000795      0.003116
     15.69992      8.56346      8.19870         0.000562      0.002560     -0.001771
     14.03197     11.92816     15.73364         0.002965      0.000943     -0.000054
     13.90513     13.78354      8.71082         0.009532     -0.007115      0.002939
      8.79859     10.06472     15.94708         0.007555      0.001405     -0.000688
      9.55620     12.34905     14.32557         0.001487      0.001613     -0.002395
      9.37526     12.12372      9.11440        -0.009027     -0.004646     -0.001413
     12.04390     15.92039      8.97636        -0.006004     -0.000226     -0.000816
      8.04439      9.82633     13.26840         0.002783      0.002039      0.001551
     12.99946      9.30186      8.42831        -0.002197     -0.001201     -0.007120
     13.30056     14.90997     11.22333         0.008387     -0.003763      0.003030
      6.81716     11.73816     14.95399         0.004546      0.001024      0.008138
     11.87308     13.75852     15.29580         0.002601      0.005245      0.000971
     11.41219     11.02858     16.08069        -0.001787     -0.002159     -0.004143
     15.12816     10.89287     13.33811        -0.001822     -0.008981      0.002639
     13.54712      6.66633      7.77689         0.003136     -0.004130      0.002587
      8.15119     15.20320     11.83247        -0.008090     -0.009092      0.002963
     10.26220     10.86528     11.70525        -0.003498     -0.005926     -0.007263
     10.26220      9.40631      9.27971        -0.009729     -0.003554     -0.006528
     10.77354     10.79921      6.99341         0.005062      0.009542     -0.011732
     10.64635     13.55753     11.81830        -0.003729     -0.003030      0.003597
     15.36797     11.29906      8.55576        -0.008406     -0.004433      0.008580
     10.67313      9.17179     14.04475        -0.005599      0.012666      0.001311
     11.60839      7.05301      9.81901         0.008532      0.012413     -0.000765
     14.96562      8.08216     12.88571         0.002331      0.004128      0.002375
     12.29471     11.70613     13.40818        -0.000481     -0.007821     -0.007703
      7.57459     12.47609     12.30938        -0.006042      0.002488      0.000960
     10.79381     16.33331     11.50164         0.000895     -0.002782     -0.002866
     12.99248      9.75940     11.46763        -0.000778     -0.001057     -0.001313
      9.85682     15.31681     14.06859         0.005794     -0.010503      0.002018
     14.32795      7.34235     10.33229         0.005438     -0.008760      0.002068
     12.11356     11.73143      9.61292        -0.011365     -0.004020     -0.009034
    total drift:                                0.040543      0.101214     -0.043220

  FREE ENERGIE OF THE ION-ELECTRON SYSTEM (eV)
  free  energy   TOTEN  =       -94.66459312 eV

  energy  without entropy=      -94.66459312  energy(sigma->0) =      -94.66459312

 d Force = 0.4643585E-04[ 0.668E-04, 0.260E-04]  d Energy = 0.6545761E-04-0.190E-04
 d Force = 0.3578696E+01[ 0.358E+01, 0.358E+01]  d Ewald  = 0.3578696E+01-0.503E-08

 reached required accuracy - stopping structural energy minimisation