 vasp.5.3.5 31Mar14 (build Feb 01 2018 12:10:03) gamma-only

 executed on             LinuxIFC date 2019.03.25  03:14:38

 INCAR:
 POTCAR:    PAW_PBE Ag 02Apr2005
 POTCAR:    PAW_PBE Ag 02Apr2005
   VRHFIN =Ag : s1 d10

   TITEL  = PAW_PBE Ag 02Apr2005
   POMASS =  107.868; ZVAL   =   11.000    mass and valenz
   ENMAX  =  249.844; ENMIN  =  187.383 eV

  PAW_PBE Ag 02Apr2005                  :

 POSCAR: Ti51, -342.79155515 <s> Ag </s>
  positions in direct lattice
 exchange correlation table for  LEXCH =        8
   RHO(1)=    0.500       N(1)  =     2000
   RHO(2)=  100.500       N(2)  =     4000

 ion  position               nearest neighbor table
   1  0.400  0.654  0.653-   9 2.58   2 2.58  12 2.68  16 2.68   6 2.77   7 2.88
   2  0.489  0.587  0.669-   1 2.58  15 2.61  11 2.63   6 2.88  16 2.88   7 2.96   3 3.04   4 3.23

   3  0.603  0.641  0.628-   8 2.61  15 2.69   5 2.75   6 2.92  14 2.95   2 3.04   4 3.14  19 3.17

[...]

   5  0.595  0.729  0.546-   8 2.59  17 2.65  19 2.71   3 2.75  18 2.78   6 2.82
   6  0.491  0.670  0.574-  12 2.76   1 2.77  16 2.79  17 2.80   5 2.82  19 2.87   2 2.88   3 2.92
                            15 2.98  28 3.15
   7  0.372  0.532  0.668-  16 2.67   9 2.73  23 2.74   1 2.88  21 2.90  11 2.93   2 2.96
   8  0.681  0.655  0.545-  25 2.57   5 2.59   3 2.61  14 2.68  19 2.77  18 2.88
   9  0.308  0.610  0.605-   1 2.58  22 2.61  21 2.63  12 2.71  16 2.72   7 2.73
  10  0.579  0.401  0.687-  20 2.46   4 2.64  24 2.71  11 2.77  13 2.82  34 2.86
  11  0.485  0.472  0.661-   2 2.63  34 2.73  29 2.76  10 2.77  23 2.87   7 2.93   4 2.97  15 2.99
                            24 3.07  16 3.54
  12  0.375  0.685  0.542-   1 2.68   9 2.71  16 2.75   6 2.76  28 2.78  22 2.81
  13  0.682  0.420  0.622-  24 2.54  20 2.71  10 2.82   4 2.92  40 2.98  14 3.01  32 3.12
  14  0.669  0.543  0.577-   8 2.68   4 2.68  15 2.82  27 2.85  32 2.90   3 2.95  13 3.01  25 3.05
                            24 3.06  19 3.43
  15  0.546  0.552  0.577-   2 2.61  19 2.64  24 2.68   3 2.69   4 2.75  14 2.82  29 2.92   6 2.98
                            11 2.99  27 3.05  16 3.05  35 3.18
  16  0.415  0.574  0.568-   7 2.67   1 2.68   9 2.72  12 2.75  29 2.77  28 2.78   6 2.79   2 2.88
                            21 3.05  15 3.05  22 3.10  33 3.15  11 3.54
  17  0.512  0.721  0.465-  31 2.55   5 2.65  19 2.71   6 2.80  28 2.89  18 2.93
  18  0.634  0.697  0.435-  19 2.50   5 2.78  30 2.81   8 2.88  17 2.93  25 2.94  31 2.99
  19  0.575  0.625  0.493-  18 2.50  15 2.64  17 2.71   5 2.71   8 2.77  31 2.78  35 2.82   6 2.87
                            27 2.91  30 3.05  25 3.13   3 3.17  28 3.31  14 3.43
  20  0.608  0.328  0.613-  10 2.46  40 2.59  13 2.71  45 2.73  24 2.77  34 2.85
  21  0.303  0.502  0.567-  37 2.57   9 2.63  23 2.74  22 2.77   7 2.90  41 2.97  16 3.05  33 3.11

[...]

  23  0.378  0.424  0.618-  37 2.69  29 2.69  21 2.74   7 2.74  11 2.87  34 2.88  38 3.33
  24  0.583  0.440  0.575-  13 2.54  15 2.68  10 2.71  20 2.77   4 2.81  34 2.85  27 2.88  36 2.92
                            29 2.96  40 2.98  14 3.06  11 3.07  32 3.51
  25  0.703  0.590  0.456-   8 2.57  39 2.67  30 2.69  27 2.84  18 2.94  14 3.05  19 3.13  32 3.17

  26  0.338  0.583  0.387-  22 2.52  44 2.62  42 2.69  33 2.74  28 2.87  41 2.94
  27  0.613  0.505  0.472-  35 2.47  32 2.57  39 2.68  25 2.84  14 2.85  24 2.88  19 2.91  36 2.92
                            43 2.95  30 3.04  15 3.05  48 3.15
  28  0.435  0.621  0.458-  35 2.73  31 2.74  12 2.78  16 2.78  26 2.87  17 2.89  42 2.91  33 3.04
                            22 3.12   6 3.15  19 3.31
  29  0.460  0.465  0.544-  23 2.69  38 2.71  33 2.71  11 2.76  16 2.77  34 2.79  15 2.92  24 2.96
                            35 2.99  36 3.07  37 3.53
  30  0.621  0.593  0.371-  31 2.51  39 2.55  25 2.69  18 2.81  43 2.93  27 3.04  19 3.05  35 3.31

[...]

  33  0.385  0.498  0.458-  41 2.58  29 2.71  44 2.73  26 2.74  49 2.85  46 2.86  42 2.90  37 2.96
                            22 3.00  35 3.02  28 3.04  21 3.11  16 3.15  38 3.45
  34  0.489  0.365  0.608-  11 2.73  45 2.78  29 2.79  24 2.85  20 2.85  10 2.86  38 2.87  23 2.88

  35  0.512  0.531  0.444-  27 2.47  42 2.53  28 2.73  43 2.80  19 2.82  29 2.99  31 2.99  33 3.02
                            46 3.04  36 3.13  15 3.18  30 3.31
  36  0.543  0.399  0.461-  47 2.71  46 2.73  45 2.75  51 2.77  50 2.81  38 2.88  27 2.92  24 2.92
                            48 2.95  40 3.05  29 3.07  43 3.10  35 3.13
  37  0.321  0.402  0.517-  49 2.47  21 2.57  23 2.69  38 2.71  41 2.80  33 2.96  29 3.53
  38  0.429  0.360  0.498-  47 2.59  37 2.71  29 2.71  49 2.84  34 2.87  36 2.88  45 2.94  46 3.07
                            23 3.33  33 3.45
  39  0.686  0.503  0.380-  30 2.55  48 2.59  25 2.67  27 2.68  43 2.75  32 2.87
  40  0.657  0.352  0.514-  20 2.59  51 2.72  48 2.73  32 2.75  13 2.98  24 2.98  45 3.01  36 3.05

[...]

  43  0.572  0.475  0.353-  50 2.57  39 2.75  35 2.80  48 2.91  30 2.93  27 2.95  46 2.97  36 3.10
                            42 3.30
  44  0.350  0.477  0.346-  49 2.52  26 2.62  42 2.69  33 2.73  41 2.80  46 2.84
  45  0.538  0.295  0.522-  51 2.59  20 2.73  36 2.75  34 2.78  47 2.83  38 2.94  40 3.01
  46  0.456  0.426  0.384-  36 2.73  49 2.78  42 2.79  47 2.81  44 2.84  50 2.84  33 2.86  43 2.97
                            35 3.04  38 3.07
  47  0.483  0.309  0.412-  38 2.59  50 2.61  51 2.66  36 2.71  46 2.81  45 2.83
  48  0.658  0.395  0.402-  39 2.59  51 2.68  40 2.73  50 2.77  32 2.81  43 2.91  36 2.95  27 3.15

  49  0.344  0.389  0.413-  37 2.47  44 2.52  46 2.78  41 2.81  38 2.84  33 2.85
  50  0.556  0.365  0.344-  43 2.57  47 2.61  51 2.61  48 2.77  36 2.81  46 2.84
  51  0.598  0.297  0.426-  45 2.59  50 2.61  47 2.66  48 2.68  40 2.72  36 2.77

  LATTYP: Found a simple cubic cell.
 ALAT       =    22.8581223959

  Lattice vectors:

 A1 = (  22.8581223959,   0.0000000000,   0.0000000000)
 A2 = (   0.0000000000,  22.8581223959,   0.0000000000)
 A3 = (   0.0000000000,   0.0000000000,  22.8581223959)

Analysis of symmetry for initial positions (statically):
 Subroutine PRICEL returns:
 Original cell was already a primitive cell.

 Routine SETGRP: Setting up the symmetry group for a
 simple cubic supercell.

 Subroutine GETGRP returns: Found  1 space group operations
 (whereof  1 operations were pure point group operations)
 out of a pool of 48 trial point group operations.

The static configuration has the point symmetry C_1 .

Analysis of symmetry for dynamics (positions and initial velocities):
 Subroutine PRICEL returns:
 Original cell was already a primitive cell.

 Routine SETGRP: Setting up the symmetry group for a
 simple cubic supercell.

 Subroutine GETGRP returns: Found  1 space group operations
 (whereof  1 operations were pure point group operations)
 out of a pool of 48 trial point group operations.

The dynamic configuration has the point symmetry C_1 .

Analysis of magnetic symmetry:
 Subroutine PRICEL returns:
 Original cell was already a primitive cell.

 Subroutine MAGSYM returns: Found  1 space group operations
 (whereof  1 operations were pure point group operations)
 out of a pool of  1 trial space group operations
 (whereof  1 operations were pure point group operations)
 and found also     1 'primitive' translations

The magnetic configuration has the point symmetry C_1 .

 KPOINTS: Gamma-point only
  k-points in reciprocal lattice
Space group operators:
 irot       det(A)        alpha          n_x          n_y          n_z        tau_x        tau_y        tau_z
    1     1.000000     0.000000     1.000000     0.000000     0.000000     0.000000     0.000000     0.000000

 I would recommend the setting:
   dimension x,y,z NGX =    88 NGY =   88 NGZ =   88
 SYSTEM =  unknown system
 POSCAR =  Ti51, -342.79155515 <s> Ag </s>

 Startparameter for this run:
   NWRITE =      2    write-flag & timer
   PREC   = normal    normal or accurate (medium, high low for compatibility)
   ISTART =      0    job   : 0-new  1-cont  2-samecut
   ICHARG =      2    charge: 1-file 2-atom 10-const
   ISPIN  =      2    spin polarized calculation?
   LNONCOLLINEAR =      F non collinear calculations
   LSORBIT =      F    spin-orbit coupling
   INIWAV =      1    electr: 0-lowe 1-rand  2-diag
   LASPH  =      F    aspherical Exc in radial PAW
   METAGGA=      F    non-selfconsistent MetaGGA calc.

 Electronic Relaxation 1
   ENCUT  =  249.8 eV  18.36 Ry    4.29 a.u.  29.46 29.46 29.46*2*pi/ulx,y,z
   ENINI  =  249.8     initial cutoff
   ENAUG  =  412.5 eV  augmentation charge cutoff
   NELM   =     60;   NELMIN=  2; NELMDL= -5     # of ELM steps
   EDIFF  = 0.1E-03   stopping-criterion for ELM
   LREAL  =      F    real-space projection
   NLSPLINE    = F    spline interpolate recip. space projectors
   LCOMPAT=      F    compatible to vasp.4.4
   GGA_COMPAT  = T    GGA compatible to vasp.4.4-vasp.4.6
   LMAXPAW     = -100 max onsite density
   LMAXMIX     =    2 max onsite mixed and CHGCAR
   VOSKOWN=      0    Vosko Wilk Nusair interpolation
   ROPT   =    0.00000
 Ionic relaxation
   EDIFFG = 0.1E-02   stopping-criterion for IOM
   NSW    =   1000    number of steps for IOM
   NBLOCK =      1;   KBLOCK =   1000    inner block; outer block
   IBRION =      2    ionic relax: 0-MD 1-quasi-New 2-CG
   NFREE  =      1    steps in history (QN), initial steepest desc. (CG)
   ISIF   =      2    stress and relaxation
   IWAVPR =     11    prediction:  0-non 1-charg 2-wave 3-comb
   ISYM   =      2    0-nonsym 1-usesym 2-fastsym
   LCORR  =      T    Harris-Foulkes like correction to forces

   POTIM  = 0.1000    time-step for ionic-motion
   TEIN   =    0.0    initial temperature
   TEBEG  =    0.0;   TEEND  =   0.0 temperature during run
   SMASS  =  -3.00    Nose mass-parameter (am)
   estimated Nose-frequenzy (Omega)   =  0.10E-29 period in steps =****** mass=  -0.119E-25a.u.
   SCALEE = 1.0000    scale energy and forces
   NPACO  =    256;   APACO  = 16.0  distance and # of slots for P.C.
   PSTRESS=    0.0 pullay stress

  Mass of Ions in am
   POMASS = 107.87
  Ionic Valenz
   ZVAL   =  11.00
  Atomic Wigner-Seitz radii
  virtual crystal weights
   VCA    =   1.00
   NELECT =     561.0000    total number of electrons
   NUPDOWN=      -1.0000    fix difference up-down

 DOS related values:
   EMIN   =  10.00;   EMAX   =-10.00  energy-range for DOS
   EFERMI =   0.00
   ISMEAR =     0;   SIGMA  =   0.00  broadening in eV -4-tet -1-fermi 0-gaus

 Electronic relaxation 2 (details)
   IALGO  =     38    algorithm
   LDIAG  =      T    sub-space diagonalisation (order eigenvalues)
   LSUBROT=      F    optimize rotation matrix (better conditioning)
   TURBO    =      0    0=normal 1=particle mesh
   IRESTART =      0    0=no restart 2=restart with 2 vectors
   NREBOOT  =      0    no. of reboots
   NMIN     =      0    reboot dimension
   EREF     =   0.00    reference energy to select bands
   IMIX   =      4    mixing-type and parameters
     AMIX     =   0.40;   BMIX     =  1.00
     AMIX_MAG =   1.60;   BMIX_MAG =  1.00
     AMIN     =   0.10
     WC   =   100.;   INIMIX=   1;  MIXPRE=   1;  MAXMIX= -45

 Intra band minimization:
[...]
      31 -82.1276      32 -81.8783      33 -82.3004      34 -82.0482      35 -82.3787
      36 -82.2932      37 -82.0632      38 -82.0572      39 -81.9507      40 -81.9985
      41 -81.9506      42 -82.1421      43 -82.0977      44 -81.9165      45 -82.1572
      46 -82.0218      47 -81.9860      48 -81.9694      49 -81.8531      50 -81.9743
      51 -81.9263

 E-fermi :  -3.2898     XC(G=0):  -1.4350     alpha+bet : -0.9802

[...]

 spin component 2

 k-point     1 :       0.0000    0.0000    0.0000
  band No.  band energies     occupation
      1      -9.6818      1.00000
      2      -9.1233      1.00000
      3      -9.0961      1.00000
      4      -9.0669      1.00000
      5      -9.0284      1.00000
      6      -8.9862      1.00000
      7      -8.9647      1.00000
      8      -8.9082      1.00000
      9      -8.8806      1.00000
     10      -8.8600      1.00000
     11      -8.8115      1.00000
     12      -8.7976      1.00000
     13      -8.7635      1.00000
     14      -8.7425      1.00000
     15      -8.7263      1.00000
     16      -8.7097      1.00000
     17      -8.6824      1.00000
     18      -8.6720      1.00000
     19      -8.6488      1.00000
     20      -8.6425      1.00000
     21      -8.6370      1.00000
     22      -8.6129      1.00000
     23      -8.6086      1.00000
     24      -8.5864      1.00000
     25      -8.5778      1.00000
     26      -8.5625      1.00000
     27      -8.5497      1.00000
     28      -8.5352      1.00000
     29      -8.5194      1.00000
     30      -8.5011      1.00000
     31      -8.4857      1.00000
     32      -8.4835      1.00000
     33      -8.4519      1.00000
     34      -8.4453      1.00000
     35      -8.4225      1.00000
     36      -8.4168      1.00000
     37      -8.4049      1.00000
     38      -8.3944      1.00000
     39      -8.3852      1.00000
     40      -8.3794      1.00000
     41      -8.3717      1.00000
     42      -8.3572      1.00000
     43      -8.3442      1.00000
     44      -8.3370      1.00000
     45      -8.3230      1.00000
     46      -8.3118      1.00000
     47      -8.2878      1.00000
     48      -8.2792      1.00000
     49      -8.2679      1.00000
     50      -8.2462      1.00000
     51      -8.2376      1.00000
     52      -8.2259      1.00000
     53      -8.2232      1.00000
     54      -8.2058      1.00000
     55      -8.2038      1.00000
     56      -8.1890      1.00000
     57      -8.1689      1.00000
     58      -8.1583      1.00000
     59      -8.1499      1.00000
     60      -8.1186      1.00000
[...]
    350       1.3978      0.00000
    351       1.4472      0.00000
    352       1.4601      0.00000
    353       1.4912      0.00000
    354       1.4999      0.00000
    355       1.5220      0.00000
    356       1.5358      0.00000
    357       1.5493      0.00000
    358       1.5781      0.00000
    359       1.5901      0.00000
    360       1.6100      0.00000
    361       1.6157      0.00000
    362       1.6638      0.00000
    363       1.6695      0.00000
    364       1.7293      0.00000

[...]

 soft charge-density along one line, spin component           2
         0         1         2         3         4         5         6         7         8         9
 total charge-density along one line

------------------------ aborting loop because EDIFF is reached ----------------------------------------

  FORCE on cell =-STRESS in cart. coord.  units (eV):
  Direction    XX          YY          ZZ          XY          YZ          ZX
  Alpha Z   185.23919   185.23919   185.23919
  Ewald   61606.45109 55054.02252 32767.87687 -3695.83572  3368.67569   -68.49225
  Hartree 78078.33406 71716.86148 50503.80408 -3527.67578  3127.55913  -106.30929
  E(xc)   -2957.54908 -2957.55417 -2959.10853    -0.08439     0.39972     0.16268
  Local  ************************-91665.01091  7230.04993 -6495.01129   179.26036
  n-local  -520.70994  -522.65024  -524.64325    -2.21081     0.52043    -0.62361
  augment  4686.14525  4685.40969  4689.47170    -1.03997    -0.59210    -1.16405
  Kinetic  6977.85997  6975.64061  6984.78314    -3.16745    -1.77059    -2.71114
  Fock        0.00000     0.00000     0.00000     0.00000     0.00000     0.00000
  Total     -18.06137   -17.57571   -17.58772     0.03581    -0.21901     0.12270
  in kB      -2.42292    -2.35777    -2.35938     0.00480    -0.02938     0.01646

 VOLUME and BASIS-vectors are now :
  energy-cutoff  :      249.84
  volume of cell :    11943.23
      direct lattice vectors                 reciprocal lattice vectors
    22.858122396  0.000000000  0.000000000     0.043748125  0.000000000  0.000000000
     0.000000000 22.858122396  0.000000000     0.000000000  0.043748125  0.000000000
     0.000000000  0.000000000 22.858122396     0.000000000  0.000000000  0.043748125

  length of vectors
    22.858122396 22.858122396 22.858122396     0.043748125  0.043748125  0.043748125

 FORCES acting on ions
    electron-ion (+dipol)            ewald-force                    non-local-force                 convergence-correction
   0.576E+03 -.113E+04 -.132E+04   -.575E+03 0.113E+04 0.132E+04   -.971E+00 0.303E+01 0.305E+01   -.277E-02 0.124E-02 0.224E-02
   -.377E+02 -.625E+03 -.169E+04   0.372E+02 0.624E+03 0.169E+04   0.490E+00 0.113E+01 0.271E+01   -.665E-02 0.431E-02 0.763E-02
   -.850E+03 -.101E+04 -.124E+04   0.848E+03 0.101E+04 0.124E+04   0.169E+01 0.243E+01 0.242E+01   -.472E-02 0.292E-02 0.571E-03
   -.820E+03 -.167E+03 -.159E+04   0.818E+03 0.167E+03 0.159E+04   0.126E+01 0.250E+00 0.290E+01   -.616E-03 0.254E-02 0.678E-02
   -.531E+03 -.167E+04 -.424E+03   0.530E+03 0.167E+04 0.422E+03   0.109E+01 0.442E+01 0.151E+01   -.301E-02 -.184E-02 0.532E-02
   0.493E+02 -.135E+04 -.754E+03   -.496E+02 0.135E+04 0.754E+03   0.292E+00 0.198E+00 0.188E+00   0.807E-02 -.381E-02 -.816E-02
   0.926E+03 -.290E+02 -.152E+04   -.926E+03 0.284E+02 0.152E+04   -.682E+00 0.567E+00 0.262E+01   -.174E-01 0.895E-03 -.119E-01
   -.139E+04 -.112E+04 -.289E+03   0.139E+04 0.111E+04 0.288E+03   0.299E+01 0.296E+01 0.539E+00   0.214E-02 0.902E-02 0.184E-01
   0.143E+04 -.763E+03 -.832E+03   -.142E+04 0.761E+03 0.830E+03   -.370E+01 0.235E+01 0.219E+01   -.148E-02 -.369E-01 -.291E-01
   -.411E+03 0.707E+03 -.167E+04   0.410E+03 -.705E+03 0.166E+04   0.110E+01 -.161E+01 0.405E+01   0.227E-02 0.140E-02 0.200E-02
   0.305E+03 0.344E+03 -.160E+04   -.305E+03 -.344E+03 0.160E+04   -.339E+00 -.136E+00 0.125E+00   -.440E-02 -.730E-02 0.565E-02
   0.859E+03 -.158E+04 -.161E+03   -.856E+03 0.158E+04 0.160E+03   -.223E+01 0.339E+01 0.120E+01   -.217E-02 0.385E-03 -.333E-02
   -.143E+04 0.510E+03 -.101E+04   0.143E+04 -.509E+03 0.101E+04   0.329E+01 -.754E+00 0.210E+01   0.654E-02 0.415E-02 0.369E-02
   -.144E+04 -.308E+03 -.783E+03   0.144E+04 0.307E+03 0.782E+03   0.978E+00 0.704E+00 0.120E+01   -.180E-01 0.262E-04 -.950E-02
   -.207E+03 -.272E+03 -.597E+03   0.207E+03 0.272E+03 0.596E+03   0.220E+00 -.631E+00 0.121E+01   0.144E-02 0.182E-01 -.231E-01
   0.609E+03 -.496E+03 -.395E+03   -.608E+03 0.495E+03 0.393E+03   -.824E+00 0.122E+01 0.124E+01   -.163E-01 -.204E-02 0.650E-02
   0.240E+03 -.168E+04 0.425E+03   -.241E+03 0.168E+04 -.423E+03   0.639E+00 0.273E+01 -.155E+01   -.542E-03 0.634E-02 0.600E-02
   -.706E+03 -.145E+04 0.840E+03   0.703E+03 0.145E+04 -.838E+03   0.229E+01 0.466E+01 -.136E+01   0.351E-01 0.279E-02 -.357E-03
   -.544E+03 -.861E+03 0.160E+03   0.543E+03 0.860E+03 -.160E+03   0.746E+00 0.152E+01 -.612E-01   0.726E-02 -.354E-01 0.270E-01
   -.692E+03 0.145E+04 -.928E+03   0.690E+03 -.144E+04 0.925E+03   0.112E+01 -.425E+01 0.282E+01   0.634E-02 0.442E-02 0.219E-02
   0.155E+04 0.187E+03 -.654E+03   -.155E+04 -.186E+03 0.653E+03   -.127E+01 -.808E+00 0.464E+00   -.514E-02 0.842E-01 0.459E-01
   0.150E+04 -.882E+03 0.199E+03   -.149E+04 0.881E+03 -.199E+03   -.224E+01 0.944E+00 -.261E+00   0.473E-02 -.214E-02 0.248E-01
   0.112E+04 0.893E+03 -.115E+04   -.111E+04 -.890E+03 0.115E+04   -.250E+01 -.243E+01 0.200E+01   0.605E-02 -.688E-02 0.623E-02
   -.445E+03 0.591E+03 -.571E+03   0.445E+03 -.590E+03 0.569E+03   0.437E+00 -.398E+00 0.133E+01   0.816E-02 0.414E-02 -.510E-02
   -.166E+04 -.556E+03 0.321E+03   0.165E+04 0.554E+03 -.319E+03   0.278E+01 0.162E+01 -.176E+01   -.253E-01 0.258E-01 -.977E-02
   0.120E+04 -.696E+03 0.121E+04   -.119E+04 0.694E+03 -.120E+04   -.225E+01 0.210E+01 -.350E+01   0.132E-01 0.903E-02 -.118E-01
   -.835E+03 0.277E+02 0.299E+03   0.833E+03 -.274E+02 -.300E+03   0.176E+01 -.285E+00 0.897E-01   -.349E-02 -.102E-01 0.177E-02
   0.671E+03 -.118E+04 0.825E+03   -.671E+03 0.118E+04 -.824E+03   0.628E-01 -.400E+00 -.316E+00   0.182E-01 0.125E-01 0.104E-01
   0.475E+03 0.504E+03 -.268E+03   -.475E+03 -.503E+03 0.267E+03   -.476E+00 -.118E+01 0.540E+00   0.642E-02 0.341E-02 -.170E-03
   -.890E+03 -.747E+03 0.133E+04   0.889E+03 0.747E+03 -.132E+04   0.504E+00 0.750E+00 -.159E+01   -.979E-02 -.329E-01 -.190E-01
   -.247E+02 -.103E+04 0.140E+04   0.247E+02 0.103E+04 -.139E+04   0.149E-01 0.916E+00 -.313E+01   -.144E-01 0.213E-01 0.433E-02
   -.173E+04 0.427E+03 -.188E+01   0.173E+04 -.426E+03 0.203E+01   0.362E+01 -.820E+00 -.145E+00   0.145E-02 0.120E-01 -.299E-02
   0.860E+03 0.960E+02 0.485E+03   -.859E+03 -.958E+02 -.484E+03   -.133E+01 -.272E+00 -.986E+00   0.273E-01 0.740E-02 -.978E-02
   0.413E+03 0.134E+04 -.113E+04   -.412E+03 -.134E+04 0.113E+04   -.245E+00 -.223E+01 0.180E+01   0.320E-02 0.486E-02 0.196E-02
   0.573E+02 -.239E+03 0.597E+03   -.574E+02 0.239E+03 -.597E+03   0.827E-01 -.119E+00 -.273E+00   0.136E-01 0.400E-02 0.679E-02
   -.154E+03 0.727E+03 0.480E+03   0.154E+03 -.725E+03 -.480E+03   -.637E-02 -.153E+01 -.590E+00   -.897E-02 -.880E-02 0.586E-02
   0.144E+04 0.995E+03 -.119E+03   -.144E+04 -.993E+03 0.118E+03   -.236E+01 -.182E+01 0.851E+00   0.286E-01 -.683E-01 -.335E-01
   0.821E+03 0.151E+04 -.216E+03   -.820E+03 -.150E+04 0.216E+03   -.643E+00 -.239E+01 0.788E+00   -.874E-02 0.183E-01 -.553E-02
   -.135E+04 0.167E+02 0.124E+04   0.134E+04 -.156E+02 -.124E+04   0.355E+01 -.116E+01 -.302E+01   0.156E-01 0.114E-01 0.799E-02
   -.123E+04 0.121E+04 -.821E+02   0.123E+04 -.121E+04 0.821E+02   0.120E+01 -.115E+01 -.714E-01   -.243E-03 0.931E-02 -.136E-01
   0.172E+04 0.203E+03 0.407E+03   -.172E+04 -.202E+03 -.404E+03   -.468E+01 -.105E+01 -.227E+01   0.110E-02 -.778E-03 -.299E-01
   0.330E+03 -.451E+03 0.168E+04   -.330E+03 0.450E+03 -.168E+04   0.231E+00 0.980E+00 -.406E+01   0.987E-02 0.326E-02 -.218E-02
   -.419E+03 -.380E+02 0.163E+04   0.419E+03 0.366E+02 -.162E+04   0.305E+00 0.151E+01 -.275E+01   0.599E-02 -.348E-01 -.872E-02
   0.106E+04 0.386E+03 0.142E+04   -.106E+04 -.385E+03 -.142E+04   -.360E+01 -.970E+00 -.282E+01   0.102E-02 0.134E-01 -.244E-02
   -.565E+02 0.170E+04 -.225E+03   0.570E+02 -.170E+04 0.224E+03   -.442E+00 -.259E+01 0.561E+00   0.984E-02 -.695E-02 -.648E-02
   0.349E+03 0.532E+03 0.146E+04   -.349E+03 -.532E+03 -.146E+04   -.329E+00 -.578E-01 0.148E+00   -.543E-03 0.455E-02 0.109E-02
   0.397E+03 0.154E+04 0.799E+03   -.396E+03 -.154E+04 -.797E+03   -.408E+00 -.284E+01 -.214E+01   -.764E-02 -.149E-01 0.683E-02
   -.121E+04 0.810E+03 0.983E+03   0.121E+04 -.810E+03 -.981E+03   0.827E+00 0.561E-01 -.149E+01   -.260E-01 -.235E-01 0.327E-02
   0.105E+04 0.117E+04 0.813E+03   -.105E+04 -.117E+04 -.811E+03   -.257E+01 -.139E+01 -.156E+01   -.146E-01 0.721E-02 0.191E-01
   -.304E+03 0.878E+03 0.160E+04   0.304E+03 -.876E+03 -.160E+04   0.713E+00 -.179E+01 -.435E+01   -.288E-01 -.198E-01 0.869E-03
   -.638E+03 0.158E+04 0.646E+03   0.636E+03 -.158E+04 -.645E+03   0.142E+01 -.435E+01 -.107E+01   -.248E-02 0.555E-02 0.113E-01
   -.168E+01 -.990E+00 0.475E+00   -.296E-11 -.250E-11 -.364E-11   0.160E+01 0.997E+00 -.490E+00   0.943E-02 0.315E-02 0.609E-02

 POSITION                                       TOTAL-FORCE (eV/Angst)
      9.23059     15.05993     15.14634         0.005213     -0.000037      0.004010
     11.42907     13.42548     15.55619         0.004748      0.000675     -0.001879
     13.86766     14.41693     14.19764         0.002592     -0.001606     -0.004876
     13.76322     11.73472     15.29688         0.003734     -0.002623     -0.001658
     13.50010     16.80709     12.48057        -0.000274      0.001824     -0.004498
     11.33666     15.28823     13.37527         0.001207      0.004242      0.003321
      8.67457     12.27364     15.24256         0.005600      0.002592     -0.002688
     15.77772     15.19990     12.20507         0.000383     -0.009979     -0.011356
      6.93989     14.23268     13.95853         0.002835     -0.000143      0.000546
     13.21434      9.14106     15.97755        -0.000944     -0.001630     -0.001472
     10.99922     10.68935     15.29180         0.002861     -0.000242     -0.003269
      8.75644     15.91328     12.35526        -0.002317     -0.002039      0.001210
     15.59813      9.69354     14.12579        -0.005067     -0.002844     -0.002700
     15.51224     12.37335     13.16076         0.013119     -0.001091      0.004731
     12.24485     12.39731     13.04964         0.004250     -0.002391     -0.001803
      9.49678     13.17748     12.65349         0.007813      0.000287     -0.004788
     11.19752     16.45200     10.85840        -0.003481     -0.006747     -0.003257
     13.98652     16.30174      9.68590        -0.024440      0.012165     -0.007011
     13.34929     14.20832     11.30648        -0.015078      0.005366     -0.002561
     14.00362      7.24046     14.19183        -0.004791     -0.004942      0.001291
      7.03520     11.66161     12.99190         0.004335      0.007080      0.002607
      6.91398     13.94892     11.22350        -0.003919      0.003721      0.004526
      8.60936      9.57460     14.23446        -0.001262      0.002138      0.001233
     13.06692      9.69735     13.07068        -0.008275     -0.005262      0.000957
     16.57945     13.07515     10.68758         0.018559     -0.021574      0.003479
      7.24275     13.30623      8.53461        -0.014451     -0.010967      0.003739
     14.18163     11.43989     10.83148         0.001415      0.012333      0.003498
      9.35874     14.54246      9.97387        -0.004725     -0.007929     -0.003812
     10.36912     10.36683     12.28152        -0.003429     -0.004196     -0.003294
     14.54640     13.68607      8.75019         0.019992      0.017964      0.013482
     11.91124     14.54332      8.83540         0.000284     -0.018877     -0.004162
     16.66053     10.30805     11.39322        -0.001223     -0.010113      0.002509
      8.69462     11.59652     10.35959        -0.010686     -0.001629      0.003161
     11.07398      8.06319     14.29826        -0.005166     -0.003638      0.001149
     11.45864     12.18837     10.37358        -0.007363     -0.002719      0.003533
     12.39827      9.30054     10.34480         0.009597      0.006663     -0.004150
      7.40307      9.34549     11.61929        -0.000024     -0.005135     -0.004097
      9.61248      7.69845     11.88045        -0.005718     -0.002383     -0.000910
     16.07898     11.42774      8.54034        -0.010042      0.006359     -0.006598
     15.06132      8.04456     11.76647        -0.001821     -0.005632      0.000753
      5.96334     11.41987     10.31927        -0.017812      0.003273      0.018180
      9.98166     12.58231      7.98360        -0.007846     -0.006326      0.000012
     13.12051     11.18709      8.20447        -0.007041      0.028848      0.004585
      7.83960     10.64688      7.86259        -0.000648     -0.008165      0.000148
     12.32722      6.96634     11.98449        -0.003767      0.003154     -0.001205
     10.52593      9.86868      8.23505         0.004993     -0.001255     -0.001510
     10.93406      7.09732      9.41738         0.010020      0.008633     -0.004398
     15.15194      8.99131      9.18046         0.012027      0.001364      0.004885
      8.47382      8.33989      9.32186         0.004637      0.001026      0.005123
     12.82914      8.40023      7.65096         0.029121      0.017690      0.000094
     13.75273      6.65047      9.64038         0.002277      0.004720     -0.004806
    total drift:                               -0.073315      0.010666     -0.009547

  FREE ENERGIE OF THE ION-ELECTRON SYSTEM (eV)
  free  energy   TOTEN  =      -111.90142338 eV

  energy  without entropy=     -111.90142338  energy(sigma->0) =     -111.90142338

 d Force = 0.2855095E-03[-0.382E-03, 0.953E-03]  d Energy = 0.2062716E-03 0.792E-04
 d Force =-0.1114004E+01[-0.113E+01,-0.110E+01]  d Ewald  =-0.1114008E+01 0.367E-05

 reached required accuracy - stopping structural energy minimisation