 vasp.5.3.5 31Mar14 (build Feb 01 2018 12:10:03) gamma-only

 executed on             LinuxIFC date 2019.03.24  03:26:18

 INCAR:
 POTCAR:    PAW_PBE Ag 02Apr2005
 POTCAR:    PAW_PBE Ag 02Apr2005
   VRHFIN =Ag : s1 d10

   TITEL  = PAW_PBE Ag 02Apr2005
   POMASS =  107.868; ZVAL   =   11.000    mass and valenz
   ENMAX  =  249.844; ENMIN  =  187.383 eV

  PAW_PBE Ag 02Apr2005                  :

 POSCAR: Al45, -142.62461552 <s> Ag </s>
  positions in direct lattice
 exchange correlation table for  LEXCH =        8
   RHO(1)=    0.500       N(1)  =     2000
   RHO(2)=  100.500       N(2)  =     4000

 ion  position               nearest neighbor table
   1  0.355  0.556  0.388-   4 2.75   7 2.78   9 2.79   3 2.84   2 2.87  15 2.92  14 3.24   5 3.30

   2  0.324  0.646  0.473-   3 2.78  12 2.80  14 2.82   1 2.87   8 2.89   7 2.97
   3  0.316  0.526  0.506-   4 2.75   2 2.78  10 2.80   1 2.84   8 2.87  16 2.90   6 2.94  14 2.96

[...]

   8  0.342  0.613  0.597-  19 2.76  10 2.76   3 2.87   2 2.89  14 2.90  22 3.20
   9  0.461  0.555  0.321-   1 2.79  17 2.79   5 2.80   7 2.90  15 2.95  21 3.01  29 3.56
  10  0.322  0.494  0.626-  23 2.76   8 2.76   6 2.78   3 2.80  16 2.91
  11  0.422  0.364  0.462-   4 2.67  24 2.68  13 2.83  18 2.85   6 2.89  15 2.96  31 2.99  16 3.19
                             5 3.32
  12  0.423  0.718  0.501-  19 2.78   2 2.80  20 2.84  14 2.87   7 2.92  25 2.92
  13  0.450  0.352  0.585-  11 2.83  33 2.86  24 2.92  16 2.92  32 2.92  23 2.96  30 3.03   6 3.06
                            31 3.13
  14  0.432  0.590  0.506-  16 2.74  21 2.75   2 2.82  15 2.82  12 2.87   8 2.90  25 2.91   3 2.96
                            22 2.96   7 3.19   1 3.24  19 3.32  28 3.52
  15  0.457  0.489  0.435-  16 2.69   5 2.71  29 2.80  14 2.82  31 2.84  21 2.87   1 2.92   4 2.93
                             9 2.95  11 2.96  18 3.24  28 3.61
  16  0.426  0.476  0.551-  15 2.69  30 2.73   6 2.74  14 2.74  22 2.88   3 2.90  23 2.91  10 2.91
                            13 2.92  31 3.10  11 3.19   4 3.60
  17  0.536  0.655  0.320-  21 2.79   9 2.79  20 2.80  27 2.84   7 2.93
  18  0.519  0.370  0.379-  34 2.74   5 2.82  11 2.85  31 2.90  24 2.99  29 3.04  15 3.24
  19  0.438  0.686  0.620-  26 2.75   8 2.76  12 2.78  22 2.80  25 2.83  14 3.32
  20  0.525  0.722  0.426-  17 2.80  21 2.80  36 2.80  12 2.84   7 2.86  25 2.88
  21  0.528  0.596  0.430-  29 2.70  14 2.75  17 2.79  20 2.80  28 2.83  27 2.85  15 2.87  25 2.88
                            36 2.95   7 3.00   9 3.01
  22  0.473  0.566  0.630-  30 2.77  19 2.80  16 2.88  26 2.88  14 2.96  37 3.02  23 3.16   8 3.20
                            25 3.25  35 3.31  28 3.31
  23  0.422  0.443  0.677-  10 2.76  32 2.79  30 2.84  35 2.89  16 2.91  13 2.96  22 3.16
  24  0.515  0.293  0.488-  11 2.68  39 2.80  31 2.81  33 2.91  13 2.92  18 2.99
  25  0.534  0.663  0.540-  26 2.72  36 2.76  19 2.83  38 2.86  21 2.88  20 2.88  14 2.91  12 2.92
                            28 2.98  22 3.25
  26  0.552  0.663  0.661-  25 2.72  37 2.74  19 2.75  22 2.88  38 2.92
  27  0.638  0.595  0.366-  36 2.77  42 2.78  17 2.84  29 2.85  21 2.85  40 3.01
  28  0.579  0.538  0.530-  30 2.77  21 2.83  38 2.89  40 2.92  31 2.94  25 2.98  41 2.98  29 2.99
                            44 3.05  37 3.11  22 3.31  36 3.49  14 3.52  15 3.61
  29  0.579  0.490  0.405-  21 2.70  31 2.80  15 2.80  42 2.81  34 2.84  27 2.85  44 2.92  28 2.99
                            18 3.04  40 3.55   9 3.56
  30  0.531  0.458  0.612-  43 2.71  31 2.72  16 2.73  28 2.77  22 2.77  32 2.83  23 2.84  37 2.90
                            35 2.90  33 2.90  13 3.03
  31  0.540  0.416  0.498-  30 2.72  29 2.80  24 2.81  15 2.84  33 2.86  18 2.90  28 2.94  44 2.94
                            11 2.99  39 3.02  16 3.10  13 3.13
  32  0.517  0.364  0.697-  33 2.74  23 2.79  30 2.83  35 2.84  13 2.92  43 2.94
  33  0.577  0.338  0.593-  32 2.74  39 2.76  45 2.82  13 2.86  31 2.86  30 2.90  24 2.91  43 2.96

[...]

  38  0.651  0.631  0.582-  36 2.78  37 2.82  25 2.86  28 2.89  41 2.90  40 2.90  26 2.92
  39  0.637  0.322  0.486-  33 2.76  24 2.80  44 2.80  34 2.80  45 2.84  31 3.02
  40  0.698  0.562  0.482-  44 2.74  41 2.75  36 2.82  42 2.86  38 2.90  28 2.92  27 3.01  29 3.55

  41  0.693  0.509  0.593-  40 2.75  37 2.77  44 2.81  38 2.90  43 2.92  28 2.98  45 3.02
  42  0.702  0.489  0.377-  34 2.74  27 2.78  44 2.79  29 2.81  40 2.86
  43  0.631  0.428  0.675-  30 2.71  45 2.79  37 2.83  41 2.92  32 2.94  33 2.96  35 2.98
  44  0.668  0.443  0.488-  45 2.73  40 2.74  42 2.79  39 2.80  41 2.81  29 2.92  34 2.92  31 2.94
                            28 3.05
  45  0.698  0.374  0.585-  44 2.73  43 2.79  33 2.82  39 2.84  41 3.02

  LATTYP: Found a simple cubic cell.
 ALAT       =    22.3263616119

  Lattice vectors:

 A1 = (  22.3263616119,   0.0000000000,   0.0000000000)
 A2 = (   0.0000000000,  22.3263616119,   0.0000000000)
 A3 = (   0.0000000000,   0.0000000000,  22.3263616119)

Analysis of symmetry for initial positions (statically):
 Subroutine PRICEL returns:
 Original cell was already a primitive cell.

 Routine SETGRP: Setting up the symmetry group for a
 simple cubic supercell.

 Subroutine GETGRP returns: Found  1 space group operations
 (whereof  1 operations were pure point group operations)
 out of a pool of 48 trial point group operations.

The static configuration has the point symmetry C_1 .

Analysis of symmetry for dynamics (positions and initial velocities):
 Subroutine PRICEL returns:
 Original cell was already a primitive cell.

 Routine SETGRP: Setting up the symmetry group for a
 simple cubic supercell.

 Subroutine GETGRP returns: Found  1 space group operations
 (whereof  1 operations were pure point group operations)
 out of a pool of 48 trial point group operations.

The dynamic configuration has the point symmetry C_1 .

Analysis of magnetic symmetry:
 Subroutine PRICEL returns:
 Original cell was already a primitive cell.

 Subroutine MAGSYM returns: Found  1 space group operations
 (whereof  1 operations were pure point group operations)
 out of a pool of  1 trial space group operations
 (whereof  1 operations were pure point group operations)
 and found also     1 'primitive' translations

The magnetic configuration has the point symmetry C_1 .

 KPOINTS: Gamma-point only
  k-points in reciprocal lattice
Space group operators:
 irot       det(A)        alpha          n_x          n_y          n_z        tau_x        tau_y        tau_z
    1     1.000000     0.000000     1.000000     0.000000     0.000000     0.000000     0.000000     0.000000

 I would recommend the setting:
   dimension x,y,z NGX =    86 NGY =   86 NGZ =   86
 SYSTEM =  unknown system
 POSCAR =  Al45, -142.62461552 <s> Ag </s>

 Startparameter for this run:
   NWRITE =      2    write-flag & timer
   PREC   = normal    normal or accurate (medium, high low for compatibility)
   ISTART =      0    job   : 0-new  1-cont  2-samecut
   ICHARG =      2    charge: 1-file 2-atom 10-const
   ISPIN  =      2    spin polarized calculation?
   LNONCOLLINEAR =      F non collinear calculations
   LSORBIT =      F    spin-orbit coupling
   INIWAV =      1    electr: 0-lowe 1-rand  2-diag
   LASPH  =      F    aspherical Exc in radial PAW
   METAGGA=      F    non-selfconsistent MetaGGA calc.

 Electronic Relaxation 1
   ENCUT  =  249.8 eV  18.36 Ry    4.29 a.u.  28.77 28.77 28.77*2*pi/ulx,y,z
   ENINI  =  249.8     initial cutoff
   ENAUG  =  412.5 eV  augmentation charge cutoff
   NELM   =     60;   NELMIN=  2; NELMDL= -5     # of ELM steps
   EDIFF  = 0.1E-03   stopping-criterion for ELM
   LREAL  =      F    real-space projection
   NLSPLINE    = F    spline interpolate recip. space projectors
   LCOMPAT=      F    compatible to vasp.4.4
   GGA_COMPAT  = T    GGA compatible to vasp.4.4-vasp.4.6
   LMAXPAW     = -100 max onsite density
   LMAXMIX     =    2 max onsite mixed and CHGCAR
   VOSKOWN=      0    Vosko Wilk Nusair interpolation
   ROPT   =    0.00000
 Ionic relaxation
   EDIFFG = 0.1E-02   stopping-criterion for IOM
   NSW    =   1000    number of steps for IOM
   NBLOCK =      1;   KBLOCK =   1000    inner block; outer block
   IBRION =      2    ionic relax: 0-MD 1-quasi-New 2-CG
   NFREE  =      1    steps in history (QN), initial steepest desc. (CG)
   ISIF   =      2    stress and relaxation
   IWAVPR =     11    prediction:  0-non 1-charg 2-wave 3-comb
   ISYM   =      2    0-nonsym 1-usesym 2-fastsym
   LCORR  =      T    Harris-Foulkes like correction to forces

   POTIM  = 0.1000    time-step for ionic-motion
   TEIN   =    0.0    initial temperature
   TEBEG  =    0.0;   TEEND  =   0.0 temperature during run
   SMASS  =  -3.00    Nose mass-parameter (am)
   estimated Nose-frequenzy (Omega)   =  0.10E-29 period in steps =****** mass=  -0.114E-25a.u.
   SCALEE = 1.0000    scale energy and forces
   NPACO  =    256;   APACO  = 16.0  distance and # of slots for P.C.
   PSTRESS=    0.0 pullay stress

  Mass of Ions in am
   POMASS = 107.87
  Ionic Valenz
   ZVAL   =  11.00
  Atomic Wigner-Seitz radii
  virtual crystal weights
   VCA    =   1.00
   NELECT =     495.0000    total number of electrons
   NUPDOWN=      -1.0000    fix difference up-down

 DOS related values:
   EMIN   =  10.00;   EMAX   =-10.00  energy-range for DOS
   EFERMI =   0.00
   ISMEAR =     0;   SIGMA  =   0.00  broadening in eV -4-tet -1-fermi 0-gaus

 Electronic relaxation 2 (details)
   IALGO  =     38    algorithm
   LDIAG  =      T    sub-space diagonalisation (order eigenvalues)
   LSUBROT=      F    optimize rotation matrix (better conditioning)
   TURBO    =      0    0=normal 1=particle mesh
   IRESTART =      0    0=no restart 2=restart with 2 vectors
   NREBOOT  =      0    no. of reboots
   NMIN     =      0    reboot dimension
   EREF     =   0.00    reference energy to select bands
   IMIX   =      4    mixing-type and parameters
     AMIX     =   0.40;   BMIX     =  1.00
     AMIX_MAG =   1.60;   BMIX_MAG =  1.00
     AMIN     =   0.10
     WC   =   100.;   INIMIX=   1;  MIXPRE=   1;  MAXMIX= -45

 Intra band minimization:
   WEIMIN = 0.0010     energy-eigenvalue tresh-hold
   EBREAK =  0.78E-07  absolut break condition
   DEPER  =   0.30     relativ break condition

   TIME   =   0.40     timestep for ELM

  volume/ion in A,a.u.               =     247.31      1668.93
  Fermi-wavevector in a.u.,A,eV,Ry     =   0.580041  1.096118  4.577645  0.336447
  Thomas-Fermi vector in A             =   1.623989

 Write flags
   LWAVE  =      F    write WAVECAR
   LCHARG =      F    write CHGCAR
   LVTOT  =      F    write LOCPOT, total local potential
   LVHAR  =      F    write LOCPOT, Hartree potential only
   LELF   =      F    write electronic localiz. function (ELF)
   LORBIT =      0    0 simple, 1 ext, 2 COOP (PROOUT)

 Dipole corrections
   LMONO  =      F    monopole corrections only (constant potential shift)
   LDIPOL =      F    correct potential (dipole corrections)
   IDIPOL =      0    1-x, 2-y, 3-z, 4-all directions
   EPSILON=  1.0000000 bulk dielectric constant

 Exchange correlation treatment:
   GGA     =    PE    GGA type
   VOSKOWN=      0    Vosko Wilk Nusair interpolation
[...]
 total energy-change (2. order) :-0.7437746E-05  (-0.7798702E-05)
 number of electron     495.0000146 magnetization       1.0000001
 augmentation part      237.4793147 magnetization      -0.0189964

 Free energy of the ion-electron system (eV)
  alpha Z        PSCENC =       154.76948756
  Ewald energy   TEWEN  =    122932.92139683
  -Hartree energ DENC   =   -167802.04351152
  -exchange      EXHF   =         0.00000000
  -V(xc)+E(xc)   XCENC  =      -508.87400982
  PAW double counting   =     48709.97612964   -46718.19887601
  entropy T*S    EENTRO =         0.00000000
  eigenvalues    EBANDS =     -3539.88268928
  atomic energy  EATOM  =     46673.93835389
  free energy    TOTEN  =       -97.39371871 eV

  energy without entropy =      -97.39371871  energy(sigma->0) =      -97.39371871

 average (electrostatic) potential at core
  the test charge radii are     1.1249
  (the norm of the test charge is              1.0000)
       1 -82.1362       2 -82.0687       3 -82.0903       4 -81.8292       5 -81.9756
       6 -81.9482       7 -82.1784       8 -82.0828       9 -82.0547      10 -81.9418
      11 -82.1297      12 -82.0648      13 -82.1529      14 -82.4097      15 -82.4005
      16 -82.3339      17 -81.9048      18 -82.1505      19 -81.9905      20 -81.9561
      21 -82.4380      22 -82.0679      23 -82.1098      24 -81.9653      25 -82.2348
      26 -81.8769      27 -81.9820      28 -82.3029      29 -82.1541      30 -82.4850
      31 -82.1619      32 -81.9580      33 -82.0973      34 -81.8320      35 -81.9456
      36 -81.9834      37 -82.1924      38 -82.1051      39 -82.0026      40 -82.1364
      41 -82.1766      42 -81.8094      43 -81.9805      44 -81.9962      45 -81.8485

 E-fermi :  -3.1671     XC(G=0):  -1.3957     alpha+bet : -0.9281

[...]

 spin component 2

 k-point     1 :       0.0000    0.0000    0.0000
  band No.  band energies     occupation
      1      -9.7544      1.00000
      2      -9.2269      1.00000
      3      -9.1389      1.00000
      4      -9.1138      1.00000
      5      -9.0807      1.00000
      6      -9.0261      1.00000
      7      -8.9756      1.00000
      8      -8.9422      1.00000
      9      -8.9334      1.00000
     10      -8.9093      1.00000
     11      -8.8864      1.00000
     12      -8.8510      1.00000
     13      -8.8451      1.00000
     14      -8.8083      1.00000
     15      -8.7925      1.00000
     16      -8.7503      1.00000
     17      -8.7105      1.00000
     18      -8.6798      1.00000
     19      -8.6678      1.00000
     20      -8.6367      1.00000
     21      -8.6333      1.00000
     22      -8.6062      1.00000
     23      -8.5747      1.00000
     24      -8.5571      1.00000
     25      -8.5426      1.00000
     26      -8.5244      1.00000
     27      -8.5058      1.00000
     28      -8.4948      1.00000
     29      -8.4779      1.00000
     30      -8.4672      1.00000
     31      -8.4615      1.00000
     32      -8.4538      1.00000
     33      -8.4362      1.00000
     34      -8.4247      1.00000
     35      -8.4109      1.00000
     36      -8.3908      1.00000
     37      -8.3719      1.00000
     38      -8.3515      1.00000
     39      -8.3266      1.00000
     40      -8.3076      1.00000
     41      -8.2934      1.00000
     42      -8.2748      1.00000
     43      -8.2695      1.00000
     44      -8.2482      1.00000
     45      -8.2357      1.00000
     46      -8.2092      1.00000
     47      -8.2035      1.00000
     48      -8.1838      1.00000
     49      -8.1810      1.00000
     50      -8.1554      1.00000
     51      -8.1438      1.00000
     52      -8.1235      1.00000
     53      -8.1114      1.00000
     54      -8.1074      1.00000
     55      -8.0887      1.00000
     56      -8.0602      1.00000
     57      -8.0494      1.00000
     58      -8.0316      1.00000
     59      -8.0067      1.00000
     60      -7.9874      1.00000
[...]
    306       1.2294      0.00000
    307       1.2374      0.00000
    308       1.2440      0.00000
    309       1.2864      0.00000
    310       1.3095      0.00000
    311       1.3386      0.00000
    312       1.3892      0.00000
    313       1.4008      0.00000
    314       1.4108      0.00000
    315       1.4532      0.00000
    316       1.4783      0.00000
    317       1.5081      0.00000
    318       1.5215      0.00000
    319       1.5430      0.00000
    320       1.5612      0.00000

[...]

 soft charge-density along one line, spin component           2
         0         1         2         3         4         5         6         7         8         9
 total charge-density along one line

------------------------ aborting loop because EDIFF is reached ----------------------------------------

  FORCE on cell =-STRESS in cart. coord.  units (eV):
  Direction    XX          YY          ZZ          XY          YZ          ZX
  Alpha Z   154.76949   154.76949   154.76949
  Ewald   38992.53379 45217.75328 38722.52425 -5304.57123 -5238.75577 -2614.09803
  Hartree 54124.59981 60003.47649 53673.95946 -4919.52591 -4900.42580 -2338.44599
  E(xc)   -2610.31398 -2609.67582 -2609.55271    -0.64925    -0.42898    -0.72145
  Local  ************************-99780.10857 10220.57376 10136.73380  4948.26869
  n-local  -468.36866  -467.21538  -469.23714    -0.81049    -0.65179    -0.57672
  augment  4137.05474  4135.36955  4134.53627     1.55270     1.09837     1.72683
  Kinetic  6163.34104  6159.90113  6157.05143     3.31788     2.41818     3.68487
  Fock        0.00000     0.00000     0.00000     0.00000     0.00000     0.00000
  Total     -16.52414   -15.79551   -16.05752    -0.11254    -0.01199    -0.16182
  in kB      -2.37890    -2.27400    -2.31172    -0.01620    -0.00173    -0.02330

 VOLUME and BASIS-vectors are now :
  energy-cutoff  :      249.84
  volume of cell :    11128.94
      direct lattice vectors                 reciprocal lattice vectors
    22.326361612  0.000000000  0.000000000     0.044790101  0.000000000  0.000000000
     0.000000000 22.326361612  0.000000000     0.000000000  0.044790101  0.000000000
     0.000000000  0.000000000 22.326361612     0.000000000  0.000000000  0.044790101

  length of vectors
    22.326361612 22.326361612 22.326361612     0.044790101  0.044790101  0.044790101

 FORCES acting on ions
    electron-ion (+dipol)            ewald-force                    non-local-force                 convergence-correction
   0.120E+04 -.177E+03 0.115E+04   -.120E+04 0.177E+03 -.114E+04   -.158E+01 0.528E+00 -.912E+00   0.216E-02 -.197E-02 -.179E-02
   0.148E+04 -.900E+03 0.420E+03   -.148E+04 0.898E+03 -.419E+03   -.449E+01 0.207E+01 -.115E+01   0.382E-03 -.131E-02 -.508E-02
   0.164E+04 -.423E+02 0.622E+02   -.164E+04 0.421E+02 -.620E+02   -.127E+01 0.274E+00 -.196E+00   0.159E-02 0.308E-03 0.995E-03
   0.142E+04 0.699E+03 0.735E+03   -.142E+04 -.697E+03 -.733E+03   -.313E+01 -.232E+01 -.188E+01   -.544E-03 0.339E-03 0.206E-02
   0.650E+03 0.715E+03 0.150E+04   -.650E+03 -.713E+03 -.150E+04   -.276E+00 -.178E+01 -.411E+01   -.265E-03 -.108E-02 0.166E-02
   0.142E+04 0.101E+04 -.325E+03   -.142E+04 -.101E+04 0.324E+03   -.332E+01 -.239E+01 0.160E+01   -.164E-02 0.163E-03 0.344E-02
   0.759E+03 -.104E+04 0.111E+04   -.757E+03 0.103E+04 -.111E+04   -.200E+01 0.121E+01 -.189E+01   0.176E-02 -.201E-02 -.128E-03
   0.129E+04 -.817E+03 -.783E+03   -.129E+04 0.816E+03 0.782E+03   -.284E+01 0.163E+01 0.127E+01   -.242E-02 0.633E-02 -.408E-02
   0.223E+03 -.104E+03 0.171E+04   -.224E+03 0.105E+03 -.170E+04   0.112E+01 -.646E+00 -.389E+01   0.184E-02 0.302E-03 -.804E-03
   0.143E+04 0.236E+02 -.104E+04   -.142E+04 -.236E+02 0.104E+04   -.283E+01 0.852E-01 0.345E+01   0.581E-02 0.441E-02 -.167E-03
   0.811E+03 0.126E+04 0.505E+03   -.810E+03 -.126E+04 -.504E+03   -.975E+00 -.678E+00 -.695E+00   -.156E-02 -.127E-02 0.270E-02
   0.718E+03 -.158E+04 -.302E+02   -.717E+03 0.158E+04 0.298E+02   -.160E+01 0.370E+01 0.370E+00   0.807E-04 -.966E-03 -.104E-02
   0.688E+03 0.140E+04 -.560E+03   -.688E+03 -.140E+04 0.559E+03   -.555E+00 -.244E+01 0.643E+00   0.609E-03 -.248E-02 0.408E-03
   0.606E+03 -.607E+03 0.214E+02   -.605E+03 0.606E+03 -.214E+02   -.153E+01 0.125E+01 -.138E-01   0.432E-03 -.177E-02 0.187E-02
   0.301E+03 0.239E+03 0.694E+03   -.300E+03 -.239E+03 -.693E+03   -.130E+01 0.148E+00 -.729E+00   -.131E-04 0.695E-03 -.839E-04
   0.727E+03 0.249E+03 -.354E+03   -.726E+03 -.249E+03 0.354E+03   -.140E+01 -.443E-02 -.710E-01   0.131E-02 -.378E-02 -.474E-03
   -.202E+03 -.978E+03 0.143E+04   0.201E+03 0.975E+03 -.142E+04   0.825E+00 0.240E+01 -.432E+01   0.887E-03 0.383E-03 0.154E-02
   -.304E+01 0.117E+04 0.123E+04   0.273E+01 -.116E+04 -.123E+04   0.312E+00 -.300E+01 -.217E+01   -.456E-03 0.739E-03 0.181E-03
   0.502E+03 -.131E+04 -.102E+04   -.501E+03 0.131E+04 0.101E+04   -.965E+00 0.282E+01 0.275E+01   0.665E-03 -.172E-02 0.503E-03
   -.133E+03 -.165E+04 0.498E+03   0.132E+03 0.165E+04 -.497E+03   0.126E+01 0.386E+01 -.659E+00   -.794E-03 0.789E-03 0.715E-04
   -.305E+03 -.664E+03 0.648E+03   0.304E+03 0.663E+03 -.648E+03   0.263E+00 0.144E+01 -.462E+00   0.362E-03 0.476E-03 0.304E-02
   0.446E+03 -.564E+03 -.130E+04   -.445E+03 0.562E+03 0.130E+04   -.603E+00 0.112E+01 0.132E+01   -.266E-02 -.620E-03 -.808E-03
   0.927E+03 0.486E+03 -.139E+04   -.924E+03 -.485E+03 0.138E+04   -.226E+01 -.102E+01 0.274E+01   0.627E-03 -.299E-02 -.127E-03
   0.195E+03 0.173E+04 0.253E+03   -.194E+03 -.173E+04 -.251E+03   -.152E+01 -.412E+01 -.136E+01   -.475E-03 -.950E-03 -.110E-03
   -.326E+03 -.139E+04 -.385E+03   0.326E+03 0.139E+04 0.384E+03   0.111E-03 0.592E-01 0.808E+00   -.955E-03 0.140E-02 -.134E-03
   -.443E+03 -.115E+04 -.123E+04   0.442E+03 0.115E+04 0.123E+04   0.116E+01 0.247E+01 0.331E+01   -.862E-03 0.206E-03 0.279E-03
   -.998E+03 -.607E+03 0.127E+04   0.996E+03 0.605E+03 -.126E+04   0.193E+01 0.159E+01 -.341E+01   0.397E-03 0.739E-03 0.526E-03
   -.358E+03 -.322E+03 -.272E+03   0.357E+03 0.322E+03 0.272E+03   0.398E+00 0.218E+00 0.341E-01   -.182E-03 0.672E-03 0.127E-02
   -.521E+03 0.253E+03 0.121E+04   0.520E+03 -.252E+03 -.121E+04   0.410E+00 -.557E+00 -.585E+00   0.968E-03 0.901E-03 -.884E-03
   -.156E+03 0.374E+03 -.875E+03   0.156E+03 -.373E+03 0.874E+03   0.132E+00 -.863E+00 0.159E+01   -.464E-02 -.375E-02 0.578E-03
   -.345E+03 0.716E+03 0.115E+03   0.345E+03 -.715E+03 -.115E+03   0.427E+00 -.129E+01 -.308E-01   -.114E-03 -.144E-02 0.165E-03
   0.101E+03 0.116E+04 -.133E+04   -.101E+03 -.116E+04 0.133E+04   -.348E+00 -.310E+01 0.361E+01   0.112E-02 -.199E-02 0.496E-03
   -.475E+03 0.147E+04 -.648E+03   0.473E+03 -.147E+04 0.647E+03   0.135E+01 -.182E+01 0.117E+01   0.370E-03 -.673E-03 -.310E-04
   -.838E+03 0.933E+03 0.117E+04   0.836E+03 -.931E+03 -.117E+04   0.176E+01 -.195E+01 -.396E+01   0.277E-03 -.907E-03 -.394E-03
   -.231E+02 -.272E+02 -.173E+04   0.235E+02 0.262E+02 0.173E+04   -.371E+00 0.960E+00 0.454E+01   -.791E-03 -.971E-03 -.646E-03
   -.116E+04 -.131E+04 0.248E+03   0.116E+04 0.131E+04 -.247E+03   0.294E+01 0.287E+01 -.102E+01   0.873E-03 0.157E-02 0.178E-04
   -.851E+03 -.496E+03 -.137E+04   0.849E+03 0.495E+03 0.137E+04   0.163E+01 0.118E+01 0.217E+01   -.317E-02 0.217E-03 0.268E-03
   -.133E+04 -.951E+03 -.630E+03   0.132E+04 0.949E+03 0.629E+03   0.338E+01 0.192E+01 0.928E+00   -.143E-03 0.352E-03 -.342E-03
   -.849E+03 0.144E+04 0.337E+03   0.848E+03 -.144E+04 -.336E+03   0.119E+01 -.302E+01 -.849E+00   0.119E-03 -.141E-02 -.966E-03
   -.143E+04 -.457E+03 0.174E+03   0.143E+04 0.455E+03 -.173E+03   0.925E+00 0.150E+01 -.474E+00   -.107E-02 0.108E-02 -.148E-02
   -.141E+04 -.180E+02 -.592E+03   0.141E+04 0.188E+02 0.591E+03   0.155E+01 -.854E+00 0.125E+01   0.418E-03 0.120E-02 0.736E-04
   -.140E+04 0.165E+02 0.984E+03   0.139E+04 -.164E+02 -.981E+03   0.486E+01 -.105E+00 -.311E+01   0.825E-04 0.465E-03 0.598E-03
   -.106E+04 0.511E+03 -.131E+04   0.106E+04 -.509E+03 0.130E+04   0.232E+01 -.144E+01 0.321E+01   0.106E-03 0.550E-03 -.292E-03
   -.151E+04 0.452E+03 0.219E+03   0.151E+04 -.451E+03 -.218E+03   0.127E+01 -.105E+01 -.651E+00   -.225E-02 0.168E-02 -.247E-02
   -.141E+04 0.852E+03 -.511E+03   0.141E+04 -.850E+03 0.509E+03   0.376E+01 -.181E+01 0.171E+01   -.971E-03 0.293E-03 -.291E-02
   0.825E-02 0.990E+00 0.980E-01   -.341E-11 0.125E-11 0.966E-12   -.228E-01 -.942E+00 -.104E+00   -.272E-02 -.781E-02 -.250E-02

 POSITION                                       TOTAL-FORCE (eV/Angst)
      8.23823     12.10690      8.74247         0.003052     -0.000204     -0.001486
      7.22830     14.32070     10.28909         0.003639     -0.004743     -0.014284
      7.01965     11.67797     11.29634         0.005318      0.005137      0.002489
      7.09494      9.60981      9.44943         0.000017      0.000946      0.006356
      9.39443      9.70529      7.74443         0.000903     -0.007164      0.000000
      7.44682      8.99076     12.28322        -0.002407      0.001995      0.013165
      9.58038     14.64141      8.65174         0.007279     -0.006960      0.000937
      7.82797     13.80168     13.08819        -0.017308      0.023993     -0.015567
     10.78923     12.31641      7.36074         0.016058     -0.001717     -0.001739
      7.26081     11.26361     14.04247         0.025695      0.024614      0.004746
      9.46362      8.47089     10.37167         0.002091     -0.002370      0.004596
      9.27512     16.01179     11.23033        -0.004055     -0.001686     -0.001018
     10.09495      7.97782     13.09680        -0.000976     -0.016236     -0.002407
      9.70388     13.26444     11.17662        -0.007899     -0.003825      0.010649
     10.69398     10.98859      9.81394         0.014340     -0.008984      0.008027
      9.57965     10.73723     12.43165         0.005587     -0.003534     -0.013898
     12.01979     14.94337      7.19099         0.007779      0.001028      0.007475
     11.79968      8.39099      8.74758        -0.001414      0.005831      0.001487
      9.84552     15.46480     13.93112         0.004102     -0.005677      0.003134
     11.56736     16.39258      9.56252        -0.001694      0.005413     -0.000083
     12.08863     13.49722      9.56498         0.008649      0.007205     -0.000898
     10.37214     12.66284     14.38278        -0.011535     -0.004366     -0.004436
      9.34293      9.85056     15.15224        -0.011605     -0.009457      0.005564
     11.44757      6.56271     11.04981        -0.002185     -0.003307      0.000490
     11.88740     15.09691     12.03479         0.003057      0.003997      0.005781
     12.40552     14.86449     14.79413        -0.004498      0.005928     -0.000782
     14.26023     13.35526      7.81844        -0.003434      0.009492     -0.003196
     12.16353     12.10549     12.01174         0.004384     -0.012458      0.010871
     13.20138     10.83671      8.64790        -0.024680     -0.005409     -0.004186
     11.84955     10.07715     13.94232         0.026365      0.009245     -0.002453
     12.38409      9.32732     11.30472        -0.004780      0.005402     -0.001700
     11.45549      7.95465     15.69644         0.004418     -0.012050      0.005851
     12.92378      7.37699     13.34405         0.001383     -0.005700      0.000684
     14.61465      8.43610      8.15383        -0.003092     -0.004625     -0.007842
     11.66236     10.67092     16.62560         0.002171     -0.004195      0.001425
     14.14743     15.22204     10.21740         0.000586      0.004970      0.002446
     13.25528     12.24758     14.94491        -0.010465     -0.013721     -0.005049
     14.25527     13.84265     12.83040        -0.003669     -0.000135     -0.005003
     14.13257      7.19494     10.66924        -0.000197     -0.002923     -0.004561
     14.73227     12.40148     10.46282        -0.008139      0.013466      0.010569
     14.54099     10.86613     12.86748        -0.007482      0.008396      0.003317
     15.90575     11.09457      8.17720         0.010748      0.002003     -0.010414
     14.09433      9.33507     15.28974        -0.004275      0.002965     -0.006186
     15.39852      9.67784     10.50780        -0.016297     -0.004435      0.003209
     15.53338      8.24851     12.94285        -0.005532      0.003856     -0.006083
    total drift:                               -0.017286      0.040834     -0.008373

  FREE ENERGIE OF THE ION-ELECTRON SYSTEM (eV)
  free  energy   TOTEN  =       -97.39371871 eV

  energy  without entropy=      -97.39371871  energy(sigma->0) =      -97.39371871

 d Force = 0.2394725E-04[ 0.324E-04, 0.155E-04]  d Energy = 0.4335400E-04-0.194E-04
 d Force =-0.1479873E+01[-0.148E+01,-0.148E+01]  d Ewald  =-0.1479873E+01-0.749E-08

 reached required accuracy - stopping structural energy minimisation