 vasp.5.3.5 31Mar14 (build Feb 01 2018 12:10:03) gamma-only

 executed on             LinuxIFC date 2019.03.25  04:42:07

 INCAR:
 POTCAR:    PAW_PBE Ag 02Apr2005
 POTCAR:    PAW_PBE Ag 02Apr2005
   VRHFIN =Ag : s1 d10

   TITEL  = PAW_PBE Ag 02Apr2005
   POMASS =  107.868; ZVAL   =   11.000    mass and valenz
   ENMAX  =  249.844; ENMIN  =  187.383 eV

  PAW_PBE Ag 02Apr2005                  :

 POSCAR: Al53, -168.75470953 <s> Ag </s>
  positions in direct lattice
 exchange correlation table for  LEXCH =        8
   RHO(1)=    0.500       N(1)  =     2000
   RHO(2)=  100.500       N(2)  =     4000

 ion  position               nearest neighbor table
   1  0.675  0.497  0.470-   5 2.73   8 2.75   2 2.81  12 2.82   4 2.82  17 2.82  11 2.85  15 2.92
                             3 2.96  19 3.43
   2  0.684  0.455  0.356-   6 2.72   4 2.77   1 2.81  19 2.82  11 2.93  12 2.94
   3  0.715  0.413  0.558-   8 2.73   4 2.77  17 2.79   9 2.83   1 2.96   7 3.06
   4  0.685  0.377  0.448-   3 2.77   2 2.77   1 2.82  13 2.83  11 2.92  17 3.30  18 3.36
   5  0.670  0.612  0.497-  10 2.68   1 2.73  25 2.80  12 2.87  20 2.87   8 2.89  15 3.00  33 3.49

   6  0.585  0.434  0.296-  21 2.67   2 2.72  19 2.74  18 2.84  11 2.95  36 3.03
   7  0.623  0.329  0.600-  22 2.81  17 2.89  16 2.91  13 2.92   9 2.94   3 3.06
   8  0.688  0.525  0.585-  10 2.71   3 2.73   1 2.75   9 2.76  14 2.76   5 2.89  17 3.05  20 3.13
                            23 3.53
   9  0.650  0.438  0.658-   8 2.76  16 2.80   3 2.83  23 2.91  17 2.91   7 2.94  14 2.96  24 3.08

  10  0.693  0.639  0.607-   5 2.68  26 2.69   8 2.71  14 2.88  20 2.88
  11  0.578  0.438  0.423-  36 2.76  18 2.79  15 2.82  32 2.83  17 2.83  19 2.85   1 2.85  13 2.88
                             4 2.92   2 2.93   6 2.95  27 3.29
  12  0.707  0.577  0.384-  25 2.77   1 2.82  19 2.85   5 2.87   2 2.94
  13  0.579  0.328  0.482-  18 2.73  22 2.74   4 2.83  11 2.88  32 2.89   7 2.92  17 2.93
  14  0.634  0.562  0.684-  30 2.76   8 2.76  24 2.79  23 2.86  10 2.88  20 2.92   9 2.96  26 2.98

  15  0.560  0.548  0.473-  20 2.81  39 2.81  11 2.82  27 2.84  19 2.90   1 2.92  33 2.95  37 3.00
                             5 3.00  25 3.14  17 3.16  36 3.37
  16  0.546  0.383  0.684-  22 2.78   9 2.80  24 2.83  31 2.90   7 2.91  23 2.96
  17  0.598  0.437  0.544-  23 2.73  27 2.76   3 2.79   1 2.82  11 2.83   7 2.89  22 2.91   9 2.91
                            13 2.93   8 3.05  15 3.16   4 3.30
  18  0.575  0.333  0.364-  13 2.73  21 2.77  11 2.79   6 2.84  32 2.88   4 3.36
  19  0.594  0.538  0.353-   6 2.74  37 2.76  25 2.78  36 2.82   2 2.82  12 2.85  11 2.85  15 2.90
                             1 3.43
  20  0.578  0.603  0.579-  33 2.78  23 2.78  15 2.81  29 2.84   5 2.87  10 2.88  14 2.92  26 2.93
                            30 2.93   8 3.13  35 3.22
  21  0.486  0.375  0.297-  46 2.64   6 2.67  18 2.77  36 3.00  32 3.04
  22  0.508  0.356  0.573-  34 2.66  13 2.74  16 2.78   7 2.81  27 2.85  31 2.88  17 2.91  32 3.47

  23  0.544  0.499  0.629-  35 2.70  17 2.73  24 2.77  20 2.78  27 2.84  14 2.86  31 2.87   9 2.91
                            16 2.96  30 3.00  28 3.15   8 3.53
  24  0.564  0.487  0.746-  23 2.77  14 2.79  28 2.80  16 2.83   9 3.08  30 3.20
  25  0.612  0.648  0.398-  38 2.68  12 2.77  19 2.78   5 2.80  37 2.87  33 2.91  15 3.14
  26  0.607  0.687  0.669-  29 2.67  10 2.69  30 2.71  20 2.93  14 2.98
  27  0.484  0.467  0.526-  41 2.75  17 2.76  39 2.78  23 2.84  15 2.84  22 2.85  35 2.86  34 2.94
                            31 2.97  32 3.18  11 3.29  45 3.30
  28  0.451  0.525  0.725-  30 2.68  43 2.69  24 2.80  31 2.86  35 2.97  44 3.08  23 3.15
  29  0.507  0.698  0.613-  42 2.66  26 2.67  30 2.83  20 2.84  33 2.92  44 3.05  35 3.52
  30  0.525  0.609  0.694-  28 2.68  26 2.71  14 2.76  29 2.83  44 2.85  20 2.93  23 3.00  35 3.03
                            24 3.20
  31  0.439  0.434  0.642-  45 2.81  28 2.86  23 2.87  22 2.88  16 2.90  27 2.97  34 2.99  35 3.04
                            43 3.29
  32  0.475  0.372  0.428-  11 2.83  41 2.86  18 2.88  13 2.89  40 2.93  36 3.02  34 3.03  21 3.04
                            46 3.12  27 3.18  22 3.47
  33  0.531  0.670  0.492-  20 2.78  47 2.86  38 2.86  42 2.91  25 2.91  29 2.92  15 2.95  39 3.13
                            37 3.20   5 3.49
  34  0.400  0.372  0.535-  22 2.66  40 2.82  45 2.85  41 2.88  27 2.94  31 2.99  32 3.03  48 3.07

  35  0.448  0.558  0.601-  23 2.70  44 2.75  39 2.77  27 2.86  50 2.91  42 2.94  28 2.97  45 3.00
                            43 3.03  30 3.03  31 3.04  20 3.22  29 3.52
  36  0.485  0.485  0.364-  11 2.76  37 2.78  19 2.82  46 2.84  41 2.94  21 3.00  49 3.01  32 3.02
                             6 3.03  15 3.37  39 3.51
  37  0.498  0.604  0.375-  47 2.74  19 2.76  36 2.78  25 2.87  49 2.87  38 2.91  39 2.92  15 3.00
                            33 3.20
  38  0.528  0.726  0.382-  47 2.66  25 2.68  33 2.86  37 2.91
  39  0.441  0.570  0.482-  35 2.77  27 2.78  42 2.78  15 2.81  41 2.82  49 2.83  37 2.92  47 3.03
                            33 3.13  51 3.28  52 3.29  50 3.47  36 3.51
  40  0.351  0.349  0.427-  46 2.76  48 2.77  34 2.82  41 2.86  32 2.93  53 3.30
  41  0.394  0.462  0.449-  27 2.75  39 2.82  46 2.83  32 2.86  51 2.86  40 2.86  53 2.87  34 2.88
                            49 2.89  48 2.93  36 2.94  45 3.07
  42  0.418  0.669  0.546-  29 2.66  50 2.71  39 2.78  52 2.85  47 2.86  33 2.91  35 2.94  44 3.09

  43  0.345  0.533  0.678-  28 2.69  45 2.74  50 2.75  44 2.87  35 3.03  31 3.29
  44  0.407  0.641  0.676-  35 2.75  30 2.85  43 2.87  50 3.01  29 3.05  28 3.08  42 3.09
  45  0.350  0.478  0.573-  48 2.73  43 2.74  31 2.81  50 2.82  51 2.84  34 2.85  35 3.00  41 3.07
                            27 3.30
  46  0.387  0.417  0.336-  21 2.64  53 2.75  40 2.76  41 2.83  36 2.84  32 3.12  49 3.48
  47  0.429  0.687  0.425-  38 2.66  52 2.67  37 2.74  33 2.86  42 2.86  39 3.03  49 3.30
  48  0.284  0.420  0.495-  45 2.73  40 2.77  51 2.82  53 2.88  41 2.93  34 3.07
  49  0.381  0.562  0.376-  39 2.83  37 2.87  41 2.89  53 3.00  36 3.01  51 3.04  52 3.21  47 3.30
                            46 3.48
  50  0.331  0.598  0.580-  42 2.71  43 2.75  51 2.78  45 2.82  35 2.91  52 2.93  44 3.01  39 3.47

  51  0.303  0.540  0.478-  52 2.70  50 2.78  53 2.80  48 2.82  45 2.84  41 2.86  49 3.04  39 3.28

  52  0.327  0.653  0.465-  47 2.67  51 2.70  42 2.85  50 2.93  49 3.21  39 3.29
  53  0.291  0.469  0.381-  46 2.75  51 2.80  41 2.87  48 2.88  49 3.00  40 3.30

  LATTYP: Found a simple cubic cell.
 ALAT       =    23.1491787590

  Lattice vectors:

 A1 = (  23.1491787590,   0.0000000000,   0.0000000000)
 A2 = (   0.0000000000,  23.1491787590,   0.0000000000)
 A3 = (   0.0000000000,   0.0000000000,  23.1491787590)

Analysis of symmetry for initial positions (statically):
 Subroutine PRICEL returns:
 Original cell was already a primitive cell.

 Routine SETGRP: Setting up the symmetry group for a
 simple cubic supercell.

 Subroutine GETGRP returns: Found  1 space group operations
 (whereof  1 operations were pure point group operations)
 out of a pool of 48 trial point group operations.

The static configuration has the point symmetry C_1 .

Analysis of symmetry for dynamics (positions and initial velocities):
 Subroutine PRICEL returns:
 Original cell was already a primitive cell.

 Routine SETGRP: Setting up the symmetry group for a
 simple cubic supercell.

 Subroutine GETGRP returns: Found  1 space group operations
 (whereof  1 operations were pure point group operations)
 out of a pool of 48 trial point group operations.

The dynamic configuration has the point symmetry C_1 .

Analysis of magnetic symmetry:
 Subroutine PRICEL returns:
 Original cell was already a primitive cell.

 Subroutine MAGSYM returns: Found  1 space group operations
 (whereof  1 operations were pure point group operations)
 out of a pool of  1 trial space group operations
 (whereof  1 operations were pure point group operations)
 and found also     1 'primitive' translations

The magnetic configuration has the point symmetry C_1 .

 KPOINTS: Gamma-point only
  k-points in reciprocal lattice
Space group operators:
 irot       det(A)        alpha          n_x          n_y          n_z        tau_x        tau_y        tau_z
    1     1.000000     0.000000     1.000000     0.000000     0.000000     0.000000     0.000000     0.000000

 I would recommend the setting:
   dimension x,y,z NGX =    90 NGY =   90 NGZ =   90
 SYSTEM =  unknown system
 POSCAR =  Al53, -168.75470953 <s> Ag </s>

 Startparameter for this run:
   NWRITE =      2    write-flag & timer
   PREC   = normal    normal or accurate (medium, high low for compatibility)
   ISTART =      0    job   : 0-new  1-cont  2-samecut
   ICHARG =      2    charge: 1-file 2-atom 10-const
   ISPIN  =      2    spin polarized calculation?
   LNONCOLLINEAR =      F non collinear calculations
   LSORBIT =      F    spin-orbit coupling
   INIWAV =      1    electr: 0-lowe 1-rand  2-diag
   LASPH  =      F    aspherical Exc in radial PAW
   METAGGA=      F    non-selfconsistent MetaGGA calc.

 Electronic Relaxation 1
   ENCUT  =  249.8 eV  18.36 Ry    4.29 a.u.  29.84 29.84 29.84*2*pi/ulx,y,z
   ENINI  =  249.8     initial cutoff
   ENAUG  =  412.5 eV  augmentation charge cutoff
   NELM   =     60;   NELMIN=  2; NELMDL= -5     # of ELM steps
   EDIFF  = 0.1E-03   stopping-criterion for ELM
   LREAL  =      F    real-space projection
   NLSPLINE    = F    spline interpolate recip. space projectors
   LCOMPAT=      F    compatible to vasp.4.4
   GGA_COMPAT  = T    GGA compatible to vasp.4.4-vasp.4.6
   LMAXPAW     = -100 max onsite density
   LMAXMIX     =    2 max onsite mixed and CHGCAR
   VOSKOWN=      0    Vosko Wilk Nusair interpolation
   ROPT   =    0.00000
 Ionic relaxation
   EDIFFG = 0.1E-02   stopping-criterion for IOM
   NSW    =   1000    number of steps for IOM
   NBLOCK =      1;   KBLOCK =   1000    inner block; outer block
   IBRION =      2    ionic relax: 0-MD 1-quasi-New 2-CG
   NFREE  =      1    steps in history (QN), initial steepest desc. (CG)
   ISIF   =      2    stress and relaxation
   IWAVPR =     11    prediction:  0-non 1-charg 2-wave 3-comb
   ISYM   =      2    0-nonsym 1-usesym 2-fastsym
   LCORR  =      T    Harris-Foulkes like correction to forces

   POTIM  = 0.1000    time-step for ionic-motion
   TEIN   =    0.0    initial temperature
   TEBEG  =    0.0;   TEEND  =   0.0 temperature during run
   SMASS  =  -3.00    Nose mass-parameter (am)
   estimated Nose-frequenzy (Omega)   =  0.10E-29 period in steps =****** mass=  -0.122E-25a.u.
   SCALEE = 1.0000    scale energy and forces
   NPACO  =    256;   APACO  = 16.0  distance and # of slots for P.C.
   PSTRESS=    0.0 pullay stress

  Mass of Ions in am
   POMASS = 107.87
  Ionic Valenz
   ZVAL   =  11.00
  Atomic Wigner-Seitz radii
  virtual crystal weights
   VCA    =   1.00
   NELECT =     583.0000    total number of electrons
   NUPDOWN=      -1.0000    fix difference up-down

 DOS related values:
   EMIN   =  10.00;   EMAX   =-10.00  energy-range for DOS
   EFERMI =   0.00
   ISMEAR =     0;   SIGMA  =   0.00  broadening in eV -4-tet -1-fermi 0-gaus

[...]

 E-fermi :  -3.2511     XC(G=0):  -1.4329     alpha+bet : -0.9807

[...]

 spin component 2

 k-point     1 :       0.0000    0.0000    0.0000
  band No.  band energies     occupation
      1      -9.6146      1.00000
      2      -9.1255      1.00000
      3      -9.0492      1.00000
      4      -8.9697      1.00000
      5      -8.9450      1.00000
      6      -8.9202      1.00000
      7      -8.9027      1.00000
      8      -8.8645      1.00000
      9      -8.8422      1.00000
     10      -8.8318      1.00000
     11      -8.8248      1.00000
     12      -8.8180      1.00000
     13      -8.7949      1.00000
     14      -8.7399      1.00000
     15      -8.7305      1.00000
     16      -8.6907      1.00000
     17      -8.6896      1.00000
     18      -8.6816      1.00000
     19      -8.6655      1.00000
     20      -8.6400      1.00000
     21      -8.6261      1.00000
     22      -8.6166      1.00000
     23      -8.6116      1.00000
     24      -8.5905      1.00000
     25      -8.5785      1.00000
     26      -8.5672      1.00000
     27      -8.5497      1.00000
     28      -8.5452      1.00000
     29      -8.5214      1.00000
     30      -8.5091      1.00000
     31      -8.4975      1.00000
     32      -8.4844      1.00000
     33      -8.4653      1.00000
     34      -8.4567      1.00000
     35      -8.4494      1.00000
     36      -8.4232      1.00000
     37      -8.4125      1.00000
     38      -8.3973      1.00000
     39      -8.3817      1.00000
     40      -8.3688      1.00000
     41      -8.3669      1.00000
     42      -8.3454      1.00000
     43      -8.3218      1.00000
     44      -8.3161      1.00000
     45      -8.3072      1.00000
     46      -8.2974      1.00000
     47      -8.2836      1.00000
     48      -8.2701      1.00000
     49      -8.2547      1.00000
     50      -8.2402      1.00000
     51      -8.2267      1.00000
     52      -8.2157      1.00000
     53      -8.2037      1.00000
     54      -8.2017      1.00000
     55      -8.1861      1.00000
     56      -8.1802      1.00000
     57      -8.1581      1.00000
     58      -8.1568      1.00000
     59      -8.1436      1.00000
     60      -8.1217      1.00000
[...]
    362       1.3979      0.00000
    363       1.4115      0.00000
    364       1.4214      0.00000
    365       1.4580      0.00000
    366       1.4683      0.00000
    367       1.4767      0.00000
    368       1.4945      0.00000
    369       1.5230      0.00000
    370       1.5582      0.00000
    371       1.5742      0.00000
    372       1.5946      0.00000
    373       1.6140      0.00000
    374       1.6461      0.00000
    375       1.6691      0.00000
    376       1.6921      0.00000

[...]

 soft charge-density along one line, spin component           2
         0         1         2         3         4         5         6         7         8         9
 total charge-density along one line

------------------------ aborting loop because EDIFF is reached ----------------------------------------

  FORCE on cell =-STRESS in cart. coord.  units (eV):
  Direction    XX          YY          ZZ          XY          YZ          ZX
  Alpha Z   192.60127   192.60127   192.60127
  Ewald   60914.64418 43960.79296 53591.79624 -2480.16630  6184.11920  3326.44576
  Hartree 78172.31441 61982.00998 71195.65143 -2324.29128  5742.67059  3113.96931
  E(xc)   -3073.57788 -3074.58071 -3073.91974    -0.28228     0.76611     0.33345
  Local  ************************************  4803.17146-11919.08940 -6433.74538
  n-local  -543.18136  -544.60333  -544.05765    -0.40587    -0.42560    -0.41190
  augment  4870.15506  4872.26582  4869.52319     0.80282    -2.31912    -1.88686
  Kinetic  7251.74254  7256.68657  7250.94143     1.68933    -5.87039    -4.47265
  Fock        0.00000     0.00000     0.00000     0.00000     0.00000     0.00000
  Total     -18.23581   -17.60693   -17.88291     0.51788    -0.14862     0.23172
  in kB      -2.35521    -2.27398    -2.30963     0.06689    -0.01919     0.02993

 VOLUME and BASIS-vectors are now :
  energy-cutoff  :      249.84
  volume of cell :    12405.29
      direct lattice vectors                 reciprocal lattice vectors
    23.149178759  0.000000000  0.000000000     0.043198077  0.000000000  0.000000000
     0.000000000 23.149178759  0.000000000     0.000000000  0.043198077  0.000000000
     0.000000000  0.000000000 23.149178759     0.000000000  0.000000000  0.043198077

  length of vectors
    23.149178759 23.149178759 23.149178759     0.043198077  0.043198077  0.043198077

 FORCES acting on ions
    electron-ion (+dipol)            ewald-force                    non-local-force                 convergence-correction
   -.156E+04 0.101E+03 0.335E+03   0.156E+04 -.101E+03 -.335E+03   0.784E+00 0.270E+00 -.181E+00   -.302E-01 0.320E-01 0.291E-01
   -.126E+04 0.417E+03 0.129E+04   0.125E+04 -.416E+03 -.129E+04   0.200E+01 -.118E+01 -.314E+01   0.205E-02 -.228E-01 -.155E-02
   -.162E+04 0.850E+03 -.393E+03   0.161E+04 -.848E+03 0.393E+03   0.441E+01 -.182E+01 0.399E+00   -.110E-01 -.136E-02 0.985E-02
   -.137E+04 0.115E+04 0.475E+03   0.137E+04 -.115E+04 -.475E+03   0.252E+01 -.271E+01 -.318E+00   -.111E-01 -.232E-02 -.176E-01
   -.138E+04 -.968E+03 0.207E+03   0.138E+04 0.965E+03 -.206E+03   0.379E+00 0.269E+01 -.716E+00   -.241E-02 -.190E-01 -.237E-01
   -.316E+03 0.366E+03 0.177E+04   0.315E+03 -.366E+03 -.177E+04   0.792E+00 -.570E+00 -.454E+01   -.135E-01 -.113E-01 0.297E-01
   -.708E+03 0.152E+04 -.862E+03   0.706E+03 -.152E+04 0.859E+03   0.239E+01 -.328E+01 0.242E+01   0.234E-01 0.708E-02 0.166E-01
   -.155E+04 -.967E+02 -.496E+03   0.155E+04 0.969E+02 0.495E+03   0.109E+01 -.893E-01 0.391E+00   0.326E-01 -.274E-01 0.156E-01
   -.117E+04 0.608E+03 -.126E+04   0.117E+04 -.607E+03 0.126E+04   0.139E+01 -.149E+01 0.226E+01   -.411E-02 -.168E-01 0.472E-02
   -.144E+04 -.996E+03 -.474E+03   0.144E+04 0.993E+03 0.473E+03   0.415E+01 0.329E+01 0.209E+00   -.461E-02 0.144E-01 -.210E-02
   -.456E+03 0.592E+03 0.659E+03   0.455E+03 -.591E+03 -.657E+03   0.103E+01 -.104E+01 -.135E+01   -.952E-03 0.172E-01 -.317E-01
   -.145E+04 -.562E+03 0.979E+03   0.144E+04 0.561E+03 -.976E+03   0.460E+01 0.932E+00 -.310E+01   -.158E-01 0.368E-02 0.256E-02
   -.490E+03 0.175E+04 0.335E+02   0.490E+03 -.175E+04 -.326E+02   0.598E+00 -.296E+01 -.911E+00   0.249E-02 -.473E-02 0.299E-02
   -.108E+04 -.431E+03 -.135E+04   0.108E+04 0.430E+03 0.135E+04   0.160E+01 0.123E+01 0.198E+01   -.315E-01 0.387E-02 0.156E-01
   -.430E+03 -.413E+03 0.269E+03   0.430E+03 0.413E+03 -.269E+03   0.229E+00 -.123E+00 -.218E+00   -.348E-02 -.225E-01 -.196E-01
   0.249E+02 0.115E+04 -.145E+04   -.241E+02 -.115E+04 0.144E+04   -.835E+00 -.173E+01 0.274E+01   0.164E-01 0.942E-02 -.100E-01
   -.659E+03 0.603E+03 -.275E+03   0.659E+03 -.602E+03 0.275E+03   0.645E+00 -.106E+01 0.769E+00   0.363E-02 0.956E-02 -.103E-01
   -.488E+03 0.147E+04 0.103E+04   0.487E+03 -.147E+04 -.103E+04   0.148E+01 -.324E+01 -.308E+01   -.441E-02 0.149E-01 0.756E-02
   -.605E+03 -.442E+03 0.148E+04   0.604E+03 0.442E+03 -.147E+04   0.119E+01 0.232E-01 -.126E+01   -.142E-01 0.440E-02 0.428E-02
   -.572E+03 -.949E+03 -.340E+03   0.571E+03 0.949E+03 0.339E+03   0.698E+00 -.157E+00 0.152E+01   0.116E-02 0.606E-02 0.199E-01
   0.283E+03 0.114E+04 0.134E+04   -.283E+03 -.114E+04 -.134E+04   -.192E+00 -.205E+01 -.171E+01   0.117E-01 -.472E-03 -.147E-01
   0.257E+03 0.159E+04 -.656E+03   -.257E+03 -.158E+04 0.655E+03   -.209E+00 -.143E+01 0.114E+01   0.519E-02 -.113E-02 -.159E-01
   -.214E+03 0.964E+02 -.847E+03   0.213E+03 -.953E+02 0.846E+03   0.638E+00 -.109E+01 0.128E+01   0.772E-02 -.175E-01 0.281E-02
   -.394E+03 0.162E+03 -.180E+04   0.393E+03 -.162E+03 0.180E+04   0.772E+00 -.721E+00 0.474E+01   0.163E-01 0.629E-02 0.280E-02
   -.878E+03 -.126E+04 0.878E+03   0.876E+03 0.126E+04 -.878E+03   0.196E+01 0.255E+01 0.406E+00   -.117E-01 0.203E-01 0.127E-01
   -.634E+03 -.141E+04 -.965E+03   0.632E+03 0.141E+04 0.962E+03   0.188E+01 0.430E+01 0.270E+01   0.391E-02 -.221E-01 -.821E-03
   0.254E+03 0.412E+03 -.118E+03   -.254E+03 -.411E+03 0.118E+03   0.569E-02 -.113E+01 0.176E+00   0.197E-01 -.710E-02 -.271E-02
   0.571E+03 0.128E+03 -.172E+04   -.569E+03 -.127E+03 0.172E+04   -.111E+01 -.238E+00 0.308E+01   -.191E-01 0.303E-02 -.828E-02
   0.740E+02 -.164E+04 -.648E+03   -.736E+02 0.163E+04 0.647E+03   -.398E+00 0.249E+01 0.171E+00   -.224E-01 0.749E-02 -.236E-01
   0.237E+02 -.845E+03 -.149E+04   -.238E+02 0.844E+03 0.149E+04   0.573E-01 0.112E+01 0.209E+01   0.818E-02 0.561E-02 0.134E-01
   0.820E+03 0.966E+03 -.113E+04   -.819E+03 -.966E+03 0.113E+04   -.528E+00 -.933E+00 0.126E+01   0.196E-01 -.322E-02 0.878E-02
   0.289E+03 0.154E+04 0.342E+03   -.289E+03 -.154E+04 -.342E+03   0.414E+00 -.117E+01 -.417E+00   -.486E-02 -.172E-02 -.306E-02
   -.244E+03 -.148E+04 0.901E+02   0.244E+03 0.148E+04 -.892E+02   0.244E+00 0.707E+00 -.951E+00   0.820E-02 0.196E-01 -.687E-03
   0.954E+03 0.147E+04 -.417E+03   -.951E+03 -.147E+04 0.417E+03   -.234E+01 -.211E+01 0.166E+00   -.177E-02 0.184E-01 -.787E-02
   0.536E+03 -.368E+03 -.645E+03   -.535E+03 0.367E+03 0.645E+03   -.784E+00 0.108E+01 0.517E+00   -.338E-02 -.262E-02 0.264E-01
   0.196E+03 -.349E+02 0.121E+04   -.196E+03 0.359E+02 -.121E+04   -.481E+00 -.105E+01 0.466E+00   0.496E-01 -.170E-01 -.321E-01
   0.103E+03 -.878E+03 0.141E+04   -.103E+03 0.878E+03 -.141E+04   -.497E+00 0.463E+00 -.181E+01   0.201E-01 -.807E-02 -.235E-01
   -.194E+03 -.155E+04 0.838E+03   0.192E+03 0.154E+04 -.836E+03   0.122E+01 0.593E+01 -.241E+01   0.231E-01 -.107E-01 0.394E-02
   0.550E+03 -.578E+03 0.246E+03   -.549E+03 0.577E+03 -.247E+03   -.882E+00 0.130E+01 0.321E+00   -.199E-01 0.147E-01 -.161E-01
   0.937E+03 0.139E+04 0.750E+03   -.934E+03 -.139E+04 -.748E+03   -.235E+01 -.247E+01 -.168E+01   -.274E-01 -.162E-01 0.612E-02
   0.841E+03 0.378E+03 0.433E+03   -.840E+03 -.377E+03 -.433E+03   -.110E+01 -.113E+01 -.773E+00   -.127E-01 -.182E-02 0.110E-01
   0.779E+03 -.153E+04 -.297E+03   -.778E+03 0.153E+04 0.296E+03   -.122E+01 0.177E+01 0.509E+00   0.313E-01 0.188E-01 0.137E-01
   0.132E+04 0.515E+02 -.133E+04   -.132E+04 -.518E+02 0.133E+04   -.303E+01 0.379E+00 0.369E+01   -.435E-03 -.353E-02 0.118E-01
   0.860E+03 -.109E+04 -.125E+04   -.858E+03 0.109E+04 0.124E+04   -.228E+01 0.188E+01 0.392E+01   0.762E-03 -.218E-02 -.318E-02
   0.144E+04 0.470E+03 -.651E+03   -.144E+04 -.470E+03 0.651E+03   0.539E-01 -.163E+00 -.347E+00   0.119E-01 0.194E-01 -.262E-01
   0.681E+03 0.228E+03 0.166E+04   -.680E+03 -.228E+03 -.166E+04   -.927E+00 0.535E-01 -.386E+01   -.645E-02 0.601E-02 0.565E-02
   0.690E+03 -.150E+04 0.760E+03   -.688E+03 0.150E+04 -.758E+03   -.187E+01 0.258E+01 -.194E+01   -.375E-01 0.102E-01 0.680E-02
   0.158E+04 0.926E+03 -.145E+02   -.158E+04 -.923E+03 0.138E+02   -.433E+01 -.290E+01 0.726E+00   0.177E-01 -.119E-01 0.459E-02
   0.977E+03 -.670E+03 0.132E+04   -.975E+03 0.669E+03 -.132E+04   -.139E+01 0.162E+01 -.243E+01   -.132E-01 0.180E-01 -.154E-02
   0.153E+04 -.699E+03 -.583E+03   -.153E+04 0.697E+03 0.582E+03   -.185E+01 0.119E+01 0.117E+01   -.163E-01 0.171E-01 0.262E-01
   0.171E+04 -.247E+03 0.188E+03   -.171E+04 0.248E+03 -.187E+03   -.275E+01 -.160E+00 -.421E+00   -.155E-01 -.644E-01 -.193E-01
   0.141E+04 -.111E+04 0.410E+03   -.141E+04 0.111E+04 -.409E+03   -.290E+01 0.262E+01 -.142E+01   0.276E-01 0.370E-01 -.167E-01
   0.147E+04 0.226E+03 0.105E+04   -.146E+04 -.225E+03 -.105E+04   -.402E+01 -.677E+00 -.256E+01   -.681E-02 0.790E-02 0.163E-01
   -.794E+00 0.280E+00 0.349E+00   0.637E-11 0.597E-12 0.682E-12   0.962E+00 -.386E+00 -.327E+00   -.239E-02 0.328E-01 -.153E-02

 POSITION                                       TOTAL-FORCE (eV/Angst)
     15.96245     11.24079     10.76528         0.015677      0.002705     -0.007430
     15.64417     10.34789      8.12994         0.001822      0.004591     -0.003573
     16.46950      9.26231     12.97589         0.002299      0.002802     -0.012595
     15.87467      8.52234     10.25277         0.007227     -0.000809      0.004796
     15.70861     13.96262     11.39442         0.008574      0.008230     -0.003756
     13.01966     10.21072      6.99759        -0.000909      0.006428     -0.002883
     14.33225      7.82160     14.24612        -0.010904     -0.000167     -0.004407
     15.89460     12.06970     13.43674        -0.013719      0.002409     -0.020773
     15.06872     10.28286     15.40745        -0.006499      0.004753     -0.006716
     16.37219     14.78034     14.03075         0.007289      0.005983      0.007926
     13.34171     10.06014      9.89254        -0.005960     -0.003458      0.003211
     16.41090     13.17592      8.79779         0.007210      0.003252      0.005124
     13.71296      7.43465     11.53752        -0.000145      0.005338     -0.004955
     14.88635     13.18250     15.79754         0.004285      0.000466     -0.005011
     13.05237     12.66521     11.07652         0.002819     -0.002076      0.007042
     12.40445      9.20319     15.92496        -0.012485      0.006853      0.001962
     13.93041     10.11401     12.59091        -0.000570      0.001799      0.007652
     13.59816      7.70930      8.60465        -0.005108     -0.002057     -0.002375
     13.82104     12.53469      8.25439        -0.006441     -0.006045      0.007599
     13.64593     14.13914     13.36006         0.001167      0.006403      0.004096
     10.97539      8.67964      7.89168         0.015330      0.002547      0.004495
     11.71112      8.22710     13.36412        -0.010956      0.001739      0.007459
     12.64350     11.65054     14.52246        -0.002425      0.006523     -0.006089
     13.27659     11.54276     17.29302         0.001719      0.002619     -0.004852
     14.22283     15.04741      9.30633         0.003287     -0.006699     -0.004816
     14.16550     15.93683     15.40799         0.002164      0.004240     -0.002141
     11.20984     10.76813     12.05657        -0.004407     -0.001403      0.003531
     10.59473     11.80561     16.63015        -0.000301     -0.004816     -0.003027
     11.64867     16.01274     14.15229        -0.007798     -0.002760      0.001520
     12.11576     14.03477     16.01656         0.003916     -0.007269     -0.004095
      9.93173      9.99204     14.64460        -0.016178      0.003704      0.000574
     11.19975      8.22066     10.54836        -0.000560     -0.005323      0.010746
     12.12888     15.47154     11.36912         0.000174     -0.007064      0.000677
      9.07861      8.55750     12.29192        -0.007631     -0.007432      0.000628
     10.22552     12.81351     13.82969        -0.004620      0.005005     -0.004527
     11.22828     11.56613      8.84707         0.003945      0.003644      0.017292
     11.59034     14.28031      8.69246         0.007283     -0.001712      0.008665
     12.25834     16.98267      8.98633         0.006163      0.005169     -0.000394
     10.08787     13.31368     11.07498         0.006299     -0.004316      0.001685
      8.55706      8.27186      9.26087         0.009543      0.006143      0.003097
      9.01743     10.74573     10.36505        -0.013410     -0.001779      0.008931
      9.42965     15.65912     12.63356        -0.000457     -0.003701      0.001768
      8.05157     12.11410     15.61017         0.006104      0.007841     -0.000228
      9.32638     14.82521     15.40378         0.003061     -0.001463     -0.001583
      7.77779     10.92936     13.14840        -0.024121     -0.022131      0.003728
      9.19587     10.62796      7.23002         0.009387     -0.005092     -0.009606
      9.79370     16.01802      9.83605        -0.009257     -0.005535      0.010500
      6.64069      9.36689     11.07532        -0.007666      0.011462     -0.008453
      8.69268     13.12644      8.69212         0.005198     -0.007615      0.004080
      7.49422     13.73501     13.35323         0.004468     -0.012082     -0.003442
      6.69639     12.28857     10.98948         0.004591     -0.009690      0.003771
      7.51000     14.84924     10.75882         0.008726      0.014340     -0.010070
      6.85661     10.78998      8.61376         0.012798     -0.004495     -0.004761
    total drift:                                0.164944     -0.072555      0.020442

  FREE ENERGIE OF THE ION-ELECTRON SYSTEM (eV)
  free  energy   TOTEN  =      -116.13631863 eV

  energy  without entropy=     -116.13631863  energy(sigma->0) =     -116.13631863

 d Force = 0.3498327E-03[-0.248E-03, 0.948E-03]  d Energy = 0.4429194E-03-0.931E-04
 d Force = 0.4758534E+01[ 0.474E+01, 0.477E+01]  d Ewald  = 0.4758529E+01 0.482E-05

 reached required accuracy - stopping structural energy minimisation