 vasp.5.3.5 31Mar14 (build Feb 01 2018 12:10:03) gamma-only

 executed on             LinuxIFC date 2019.03.25  04:46:43

 INCAR:
 POTCAR:    PAW_PBE Ag 02Apr2005
 POTCAR:    PAW_PBE Ag 02Apr2005
   VRHFIN =Ag : s1 d10

   TITEL  = PAW_PBE Ag 02Apr2005
   POMASS =  107.868; ZVAL   =   11.000    mass and valenz
   ENMAX  =  249.844; ENMIN  =  187.383 eV

  PAW_PBE Ag 02Apr2005                  :

 POSCAR: Ti53, -356.89047468 <s> Ag </s>
  positions in direct lattice
 exchange correlation table for  LEXCH =        8
   RHO(1)=    0.500       N(1)  =     2000
   RHO(2)=  100.500       N(2)  =     4000

 ion  position               nearest neighbor table
   1  0.429  0.345  0.370-   4 2.65  11 2.67   7 2.73   2 2.75   6 2.84   3 2.88
   2  0.386  0.430  0.297-   4 2.55  11 2.66   3 2.67  13 2.69   1 2.75  12 2.83
   3  0.325  0.412  0.396-  11 2.67   2 2.67  15 2.78  17 2.80   1 2.88  13 2.90   7 3.18  24 3.59

   4  0.496  0.414  0.306-   2 2.55  16 2.59   1 2.65   6 2.78  11 2.79  12 2.96   8 3.47
   5  0.529  0.317  0.510-  14 2.58  22 2.70   6 2.71  10 2.79   7 2.80   9 2.88
   6  0.533  0.391  0.419-   8 2.62  22 2.66   5 2.71   4 2.78  11 2.81   1 2.84  20 2.99   7 3.03
                             9 3.12  18 3.33
   7  0.422  0.370  0.487-  22 2.67  17 2.70  14 2.72   1 2.73   5 2.80  11 2.84   6 3.03  24 3.11
                            26 3.18   3 3.18
   8  0.630  0.432  0.373-  25 2.57   6 2.62  16 2.67  19 2.68  18 2.85  20 3.30   9 3.31   4 3.47

   9  0.634  0.385  0.510-  18 2.60  23 2.86   5 2.88  21 2.92  27 2.94  10 3.02  22 3.02   6 3.12
                            25 3.12   8 3.31
  10  0.574  0.344  0.620-  23 2.65  14 2.68   5 2.79  31 2.79  21 2.84  37 2.90   9 3.02  22 3.27

[...]

  14  0.459  0.342  0.595-   5 2.58  26 2.68  10 2.68   7 2.72  31 2.74  22 2.88
  15  0.287  0.511  0.453-  29 2.72  24 2.72  13 2.77   3 2.78  30 2.80  17 2.82  42 2.92  33 3.59

[...]

  20  0.527  0.521  0.421-  18 2.54  16 2.64  11 2.67  28 2.78  33 2.83  34 2.84  35 2.91   6 2.99
                            19 3.04  22 3.18  12 3.22   8 3.30
  21  0.609  0.462  0.608-  23 2.59  37 2.62  40 2.69  38 2.73  41 2.78  27 2.81  10 2.84  50 2.91
                             9 2.92  22 2.99  18 3.00  43 3.48
  22  0.512  0.432  0.526-   6 2.66   7 2.67   5 2.70  40 2.70  14 2.88  18 2.95  21 2.99   9 3.02
                            20 3.18  24 3.20  35 3.24  26 3.25  10 3.27  11 3.47
  23  0.684  0.380  0.624-  38 2.58  21 2.59  10 2.65  27 2.81  37 2.82   9 2.86
  24  0.392  0.501  0.506-  30 2.66  26 2.68  17 2.72  15 2.72  33 2.73  11 2.77  35 2.80  48 2.92
                            42 2.93   7 3.11  22 3.20   3 3.59
  25  0.716  0.465  0.437-   8 2.57  18 2.59  27 2.66  32 2.76  19 2.77   9 3.12
  26  0.394  0.438  0.604-  24 2.68  14 2.68  39 2.70  40 2.70  30 2.75  17 2.76  48 2.93   7 3.18
                            31 3.22  22 3.25
  27  0.717  0.473  0.552-  25 2.66  43 2.76  21 2.81  23 2.81  32 2.82  38 2.82  18 2.87   9 2.94
                            41 3.61
  28  0.527  0.616  0.345-  12 2.72  45 2.76  16 2.76  20 2.78  34 2.89  36 2.91  33 3.13  19 3.32

[...]

  33  0.422  0.585  0.427-  36 2.47  24 2.73  45 2.75  44 2.76  29 2.78  20 2.83  35 2.86  13 2.98
                            11 3.00  12 3.10  42 3.12  28 3.13  51 3.40  15 3.59
  34  0.592  0.623  0.453-  46 2.74  45 2.76  19 2.78  41 2.79  20 2.84  28 2.89  47 2.91  32 3.00
                            18 3.09  35 3.20
  35  0.489  0.571  0.531-  41 2.63  51 2.70  24 2.80  40 2.80  33 2.86  47 2.86  52 2.88  48 2.91
                            20 2.91  34 3.20  22 3.24  45 3.38
  36  0.405  0.650  0.343-  33 2.47  44 2.73  29 2.78  28 2.91  12 2.97  45 3.01  13 3.20
  37  0.610  0.420  0.714-  21 2.62  38 2.72  31 2.75  49 2.80  23 2.82  10 2.90  50 3.03
  38  0.706  0.478  0.675-  23 2.58  50 2.60  37 2.72  21 2.73  43 2.73  27 2.82
  39  0.417  0.489  0.708-  40 2.63  49 2.64  26 2.70  31 2.76  48 2.80
  40  0.497  0.493  0.625-  39 2.63  52 2.66  49 2.69  31 2.69  21 2.69  26 2.70  22 2.70  35 2.80
                            48 2.89  41 3.32  50 3.60
  41  0.599  0.575  0.564-  35 2.63  46 2.66  53 2.66  43 2.70  47 2.70  18 2.72  21 2.78  34 2.79
                            52 2.85  32 3.12  50 3.16  40 3.32  27 3.61
  42  0.328  0.610  0.522-  29 2.63  51 2.71  44 2.78  30 2.79  48 2.81  15 2.92  24 2.93  33 3.12

[...]

  46  0.662  0.669  0.538-  53 2.61  41 2.66  32 2.70  47 2.72  34 2.74  43 2.86
  47  0.545  0.680  0.556-  41 2.70  46 2.72  51 2.74  53 2.77  52 2.84  35 2.86  34 2.91  45 3.01

  48  0.394  0.566  0.615-  30 2.76  39 2.80  42 2.81  40 2.89  35 2.91  24 2.92  51 2.92  26 2.93
                            52 2.99
  49  0.527  0.506  0.738-  50 2.61  39 2.64  40 2.69  31 2.77  37 2.80  52 3.07
  50  0.623  0.551  0.698-  38 2.60  49 2.61  53 2.70  43 2.85  21 2.91  52 3.02  37 3.03  41 3.16
                            40 3.60
  51  0.427  0.669  0.549-  44 2.59  35 2.70  42 2.71  47 2.74  48 2.92  45 2.97  52 3.38  33 3.40

  52  0.513  0.605  0.650-  40 2.66  53 2.78  47 2.84  41 2.85  35 2.88  48 2.99  50 3.02  49 3.07
                            51 3.38
  53  0.623  0.656  0.644-  46 2.61  41 2.66  50 2.70  43 2.74  47 2.77  52 2.78

  LATTYP: Found a simple cubic cell.
 ALAT       =    22.9349612542

  Lattice vectors:

 A1 = (  22.9349612542,   0.0000000000,   0.0000000000)
 A2 = (   0.0000000000,  22.9349612542,   0.0000000000)
 A3 = (   0.0000000000,   0.0000000000,  22.9349612542)

Analysis of symmetry for initial positions (statically):
 Subroutine PRICEL returns:
 Original cell was already a primitive cell.

 Routine SETGRP: Setting up the symmetry group for a
 simple cubic supercell.

 Subroutine GETGRP returns: Found  1 space group operations
 (whereof  1 operations were pure point group operations)
 out of a pool of 48 trial point group operations.

The static configuration has the point symmetry C_1 .

Analysis of symmetry for dynamics (positions and initial velocities):
 Subroutine PRICEL returns:
 Original cell was already a primitive cell.

 Routine SETGRP: Setting up the symmetry group for a
 simple cubic supercell.

 Subroutine GETGRP returns: Found  1 space group operations
 (whereof  1 operations were pure point group operations)
 out of a pool of 48 trial point group operations.

The dynamic configuration has the point symmetry C_1 .

Analysis of magnetic symmetry:
 Subroutine PRICEL returns:
 Original cell was already a primitive cell.

 Subroutine MAGSYM returns: Found  1 space group operations
 (whereof  1 operations were pure point group operations)
 out of a pool of  1 trial space group operations
 (whereof  1 operations were pure point group operations)
 and found also     1 'primitive' translations

The magnetic configuration has the point symmetry C_1 .

 KPOINTS: Gamma-point only
  k-points in reciprocal lattice
Space group operators:
 irot       det(A)        alpha          n_x          n_y          n_z        tau_x        tau_y        tau_z
    1     1.000000     0.000000     1.000000     0.000000     0.000000     0.000000     0.000000     0.000000

 I would recommend the setting:
   dimension x,y,z NGX =    89 NGY =   89 NGZ =   89
 SYSTEM =  unknown system
 POSCAR =  Ti53, -356.89047468 <s> Ag </s>

 Startparameter for this run:
   NWRITE =      2    write-flag & timer
   PREC   = normal    normal or accurate (medium, high low for compatibility)
   ISTART =      0    job   : 0-new  1-cont  2-samecut
   ICHARG =      2    charge: 1-file 2-atom 10-const
   ISPIN  =      2    spin polarized calculation?
   LNONCOLLINEAR =      F non collinear calculations
   LSORBIT =      F    spin-orbit coupling
   INIWAV =      1    electr: 0-lowe 1-rand  2-diag
   LASPH  =      F    aspherical Exc in radial PAW
   METAGGA=      F    non-selfconsistent MetaGGA calc.

 Electronic Relaxation 1
   ENCUT  =  249.8 eV  18.36 Ry    4.29 a.u.  29.56 29.56 29.56*2*pi/ulx,y,z
   ENINI  =  249.8     initial cutoff
   ENAUG  =  412.5 eV  augmentation charge cutoff
   NELM   =     60;   NELMIN=  2; NELMDL= -5     # of ELM steps
   EDIFF  = 0.1E-03   stopping-criterion for ELM
   LREAL  =      F    real-space projection
   NLSPLINE    = F    spline interpolate recip. space projectors
   LCOMPAT=      F    compatible to vasp.4.4
   GGA_COMPAT  = T    GGA compatible to vasp.4.4-vasp.4.6
   LMAXPAW     = -100 max onsite density
   LMAXMIX     =    2 max onsite mixed and CHGCAR
   VOSKOWN=      0    Vosko Wilk Nusair interpolation
   ROPT   =    0.00000
 Ionic relaxation
   EDIFFG = 0.1E-02   stopping-criterion for IOM
   NSW    =   1000    number of steps for IOM
   NBLOCK =      1;   KBLOCK =   1000    inner block; outer block
   IBRION =      2    ionic relax: 0-MD 1-quasi-New 2-CG
   NFREE  =      1    steps in history (QN), initial steepest desc. (CG)
   ISIF   =      2    stress and relaxation
   IWAVPR =     11    prediction:  0-non 1-charg 2-wave 3-comb
   ISYM   =      2    0-nonsym 1-usesym 2-fastsym
   LCORR  =      T    Harris-Foulkes like correction to forces

   POTIM  = 0.1000    time-step for ionic-motion
   TEIN   =    0.0    initial temperature
   TEBEG  =    0.0;   TEEND  =   0.0 temperature during run
   SMASS  =  -3.00    Nose mass-parameter (am)
   estimated Nose-frequenzy (Omega)   =  0.10E-29 period in steps =****** mass=  -0.120E-25a.u.
   SCALEE = 1.0000    scale energy and forces
   NPACO  =    256;   APACO  = 16.0  distance and # of slots for P.C.
   PSTRESS=    0.0 pullay stress

  Mass of Ions in am
   POMASS = 107.87
  Ionic Valenz
   ZVAL   =  11.00
  Atomic Wigner-Seitz radii
  virtual crystal weights
   VCA    =   1.00
   NELECT =     583.0000    total number of electrons
   NUPDOWN=      -1.0000    fix difference up-down

 DOS related values:
   EMIN   =  10.00;   EMAX   =-10.00  energy-range for DOS
   EFERMI =   0.00
   ISMEAR =     0;   SIGMA  =   0.00  broadening in eV -4-tet -1-fermi 0-gaus

 Electronic relaxation 2 (details)
   IALGO  =     38    algorithm
   LDIAG  =      T    sub-space diagonalisation (order eigenvalues)
   LSUBROT=      F    optimize rotation matrix (better conditioning)
   TURBO    =      0    0=normal 1=particle mesh
   IRESTART =      0    0=no restart 2=restart with 2 vectors
   NREBOOT  =      0    no. of reboots
   NMIN     =      0    reboot dimension
   EREF     =   0.00    reference energy to select bands
   IMIX   =      4    mixing-type and parameters
     AMIX     =   0.40;   BMIX     =  1.00
     AMIX_MAG =   1.60;   BMIX_MAG =  1.00
     AMIN     =   0.10
     WC   =   100.;   INIMIX=   1;  MIXPRE=   1;  MAXMIX= -45

 Intra band minimization:
   WEIMIN = 0.0010     energy-eigenvalue tresh-hold
   EBREAK =  0.66E-07  absolut break condition
   DEPER  =   0.30     relativ break condition

   TIME   =   0.40     timestep for ELM

  volume/ion in A,a.u.               =     227.62      1536.08
  Fermi-wavevector in a.u.,A,eV,Ry     =   0.596302  1.126848  4.837908  0.355576
  Thomas-Fermi vector in A             =   1.646596

 Write flags
   LWAVE  =      F    write WAVECAR
   LCHARG =      F    write CHGCAR
   LVTOT  =      F    write LOCPOT, total local potential
[...]

 E-fermi :  -3.1113     XC(G=0):  -1.4622     alpha+bet : -1.0084

[...]

 spin component 2

 k-point     1 :       0.0000    0.0000    0.0000
  band No.  band energies     occupation
      1      -9.7036      1.00000
      2      -9.2622      1.00000
      3      -9.0964      1.00000
      4      -9.0313      1.00000
      5      -8.9847      1.00000
      6      -8.9533      1.00000
      7      -8.9371      1.00000
      8      -8.9055      1.00000
      9      -8.8921      1.00000
     10      -8.8815      1.00000
     11      -8.8657      1.00000
     12      -8.8515      1.00000
     13      -8.8111      1.00000
     14      -8.8062      1.00000
     15      -8.7896      1.00000
     16      -8.7477      1.00000
     17      -8.7347      1.00000
     18      -8.7226      1.00000
     19      -8.6870      1.00000
     20      -8.6574      1.00000
     21      -8.6540      1.00000
     22      -8.6203      1.00000
     23      -8.6084      1.00000
     24      -8.5944      1.00000
     25      -8.5781      1.00000
     26      -8.5662      1.00000
     27      -8.5480      1.00000
     28      -8.5345      1.00000
     29      -8.5195      1.00000
     30      -8.5027      1.00000
     31      -8.4887      1.00000
     32      -8.4799      1.00000
     33      -8.4718      1.00000
     34      -8.4639      1.00000
     35      -8.4470      1.00000
     36      -8.4312      1.00000
     37      -8.4121      1.00000
     38      -8.4029      1.00000
     39      -8.3957      1.00000
     40      -8.3756      1.00000
     41      -8.3645      1.00000
     42      -8.3522      1.00000
     43      -8.3449      1.00000
     44      -8.3292      1.00000
     45      -8.3241      1.00000
     46      -8.3067      1.00000
     47      -8.2877      1.00000
     48      -8.2742      1.00000
     49      -8.2646      1.00000
     50      -8.2610      1.00000
     51      -8.2319      1.00000
     52      -8.2119      1.00000
     53      -8.2061      1.00000
     54      -8.2019      1.00000
     55      -8.1899      1.00000
     56      -8.1857      1.00000
     57      -8.1623      1.00000
     58      -8.1568      1.00000
     59      -8.1431      1.00000
     60      -8.1364      1.00000
[...]
    362       1.4103      0.00000
    363       1.4275      0.00000
    364       1.4466      0.00000
    365       1.4656      0.00000
    366       1.4922      0.00000
    367       1.5048      0.00000
    368       1.5291      0.00000
    369       1.5418      0.00000
    370       1.5588      0.00000
    371       1.5828      0.00000
    372       1.5939      0.00000
    373       1.6120      0.00000
    374       1.6546      0.00000
    375       1.6650      0.00000
    376       1.7124      0.00000

[...]

 soft charge-density along one line, spin component           2
         0         1         2         3         4         5         6         7         8         9
 total charge-density along one line

------------------------ aborting loop because EDIFF is reached ----------------------------------------

  FORCE on cell =-STRESS in cart. coord.  units (eV):
  Direction    XX          YY          ZZ          XY          YZ          ZX
  Alpha Z   198.04865   198.04865   198.04865
  Ewald   61666.48410 37785.15487 59241.51426  -147.59072 -1865.96857 11439.19826
  Hartree 78862.38674 56109.33952 76604.52906  -146.49373 -1788.81563 10754.62310
  E(xc)   -3073.31124 -3074.88122 -3073.63635    -0.01981     0.09230     0.88940
  Local  ************************************   296.32963  3654.76266-22190.13982
  n-local  -548.02711  -547.74293  -547.41802    -0.54533    -0.64402     1.51575
  augment  4868.83732  4874.44729  4870.63301    -0.37237     0.05445    -1.92864
  Kinetic  7247.16145  7260.88624  7251.47966    -1.20088    -0.27884    -4.37105
  Fock        0.00000     0.00000     0.00000     0.00000     0.00000     0.00000
  Total     -20.06393   -19.03557   -19.84284     0.10678    -0.79766    -0.21299
  in kB      -2.66460    -2.52803    -2.63524     0.01418    -0.10593    -0.02829

 VOLUME and BASIS-vectors are now :
  energy-cutoff  :      249.84
  volume of cell :    12064.08
      direct lattice vectors                 reciprocal lattice vectors
    22.934961254  0.000000000  0.000000000     0.043601556  0.000000000  0.000000000
     0.000000000 22.934961254  0.000000000     0.000000000  0.043601556  0.000000000
     0.000000000  0.000000000 22.934961254     0.000000000  0.000000000  0.043601556

  length of vectors
    22.934961254 22.934961254 22.934961254     0.043601556  0.043601556  0.043601556

 FORCES acting on ions
    electron-ion (+dipol)            ewald-force                    non-local-force                 convergence-correction
   0.403E+03 0.159E+04 0.907E+03   -.403E+03 -.159E+04 -.906E+03   -.215E+00 -.482E+01 -.140E+01   -.379E-02 0.730E-01 0.138E-01
   0.747E+03 0.644E+03 0.157E+04   -.746E+03 -.642E+03 -.156E+04   -.180E+01 -.205E+01 -.428E+01   0.943E-02 0.567E-01 0.131E-03
   0.141E+04 0.994E+03 0.648E+03   -.140E+04 -.992E+03 -.647E+03   -.248E+01 -.196E+01 -.168E+01   0.254E-01 0.536E-01 0.184E-01
   -.274E+03 0.863E+03 0.157E+04   0.274E+03 -.861E+03 -.157E+04   0.106E+00 -.132E+01 -.213E+01   0.348E-02 -.774E-01 -.212E-01
   -.220E+03 0.184E+04 0.112E+03   0.220E+03 -.183E+04 -.111E+03   0.216E+00 -.394E+01 -.159E+01   0.141E-01 0.280E-01 0.273E-02
   -.404E+03 0.137E+04 0.753E+03   0.404E+03 -.137E+04 -.753E+03   0.726E+00 -.654E+00 -.402E+00   -.736E-01 0.250E-01 -.137E-01
   0.718E+03 0.150E+04 0.515E+02   -.717E+03 -.150E+04 -.515E+02   -.983E+00 -.132E+01 0.591E-02   -.306E-01 0.336E-01 -.242E-02
   -.105E+04 0.856E+03 0.122E+04   0.105E+04 -.855E+03 -.122E+04   0.154E+01 -.120E+01 -.115E+01   -.435E-01 0.245E-01 0.552E-01
   -.105E+04 0.138E+04 0.314E+03   0.105E+04 -.137E+04 -.313E+03   0.173E+01 -.173E+01 -.177E+01   0.368E-01 -.451E-01 0.259E-01
   -.369E+03 0.153E+04 -.794E+03   0.368E+03 -.153E+04 0.794E+03   0.236E+00 -.110E+01 0.541E-01   0.672E-02 -.436E-01 0.122E-01
   0.499E+03 0.509E+03 0.715E+03   -.498E+03 -.508E+03 -.714E+03   -.107E+01 -.615E+00 -.771E+00   -.524E-01 -.128E-01 -.388E-01
   0.311E+03 -.351E+03 0.169E+04   -.311E+03 0.350E+03 -.168E+04   -.190E+00 0.377E+00 -.192E+01   0.224E-01 -.531E-01 0.273E-01
   0.130E+04 -.118E+03 0.124E+04   -.130E+04 0.117E+03 -.124E+04   -.184E+01 0.627E+00 -.166E+01   0.136E-04 0.868E-03 -.644E-02
   0.605E+03 0.159E+04 -.703E+03   -.603E+03 -.159E+04 0.702E+03   -.231E+01 -.282E+01 0.573E+00   0.534E-02 0.775E-01 -.311E-01
   0.175E+04 0.328E+02 0.222E+03   -.175E+04 -.321E+02 -.222E+03   -.229E+01 -.708E+00 0.208E+00   -.805E-02 0.169E-01 0.126E-01
   -.685E+03 -.169E+03 0.173E+04   0.683E+03 0.169E+03 -.172E+04   0.212E+01 0.109E-01 -.390E+01   -.154E-01 0.403E-02 0.118E-01
   0.151E+04 0.104E+04 -.318E+03   -.151E+04 -.104E+04 0.316E+03   -.280E+01 -.299E+01 0.136E+01   -.285E-01 0.232E-01 -.772E-02
   -.839E+03 0.178E+03 0.349E+03   0.838E+03 -.178E+03 -.349E+03   0.922E+00 -.445E-01 -.406E+00   0.262E-01 -.207E-01 -.780E-02
   -.129E+04 -.560E+03 0.121E+04   0.129E+04 0.559E+03 -.121E+04   0.264E+01 0.117E+01 -.241E+01   -.194E-01 -.456E-01 0.429E-01
   -.276E+03 -.115E+03 0.795E+03   0.276E+03 0.115E+03 -.794E+03   0.278E+00 0.163E+00 -.117E+01   0.453E-01 -.231E-01 0.557E-01
   -.672E+03 0.448E+03 -.596E+03   0.671E+03 -.448E+03 0.595E+03   0.124E+01 -.186E+00 0.132E+01   0.172E-02 -.175E-01 -.311E-01
   -.339E+01 0.691E+03 -.130E+03   0.345E+01 -.690E+03 0.130E+03   -.454E-01 -.567E+00 -.741E-01   -.103E-01 0.986E-01 -.283E-01
   -.125E+04 0.126E+04 -.597E+03   0.125E+04 -.125E+04 0.595E+03   0.355E+01 -.344E+01 0.133E+01   0.223E-01 0.496E-02 -.221E-01
   0.836E+03 0.176E+03 -.173E+03   -.835E+03 -.176E+03 0.172E+03   -.163E+01 -.468E+00 0.235E+00   0.180E-01 -.157E-01 -.592E-02
   -.161E+04 0.536E+03 0.779E+03   0.161E+04 -.534E+03 -.776E+03   0.389E+01 -.169E+01 -.239E+01   -.805E-02 0.649E-01 -.228E-01
   0.108E+04 0.800E+03 -.981E+03   -.108E+04 -.799E+03 0.981E+03   -.607E+00 -.508E+00 0.625E+00   -.996E-02 0.877E-02 -.481E-02
   -.172E+04 0.393E+03 -.106E+03   0.172E+04 -.393E+03 0.106E+03   0.238E+01 -.217E+00 0.824E+00   0.247E-01 -.454E-02 0.564E-02
   -.446E+03 -.121E+04 0.132E+04   0.445E+03 0.121E+04 -.132E+04   0.130E+01 0.225E+01 -.131E+01   -.194E-01 -.306E-01 0.277E-01
   0.149E+04 -.867E+03 0.670E+03   -.148E+04 0.865E+03 -.668E+03   -.360E+01 0.256E+01 -.208E+01   -.207E-03 -.733E-02 -.393E-01
   0.166E+04 -.485E+02 -.885E+03   -.166E+04 0.485E+02 0.881E+03   -.386E+01 -.713E-01 0.314E+01   -.212E-01 0.324E-01 0.146E-01
   0.382E+03 0.100E+04 -.144E+04   -.381E+03 -.999E+03 0.144E+04   -.840E+00 -.642E+00 0.270E+01   0.188E-01 -.386E-01 0.519E-02
   -.164E+04 -.651E+03 0.424E+03   0.164E+04 0.650E+03 -.423E+03   0.231E+01 0.456E+00 -.110E+01   -.126E-01 -.312E-01 0.553E-01
   0.623E+03 -.619E+03 0.543E+03   -.622E+03 0.618E+03 -.542E+03   -.120E+01 0.121E+01 -.875E+00   -.254E-01 0.268E-02 -.971E-02
   -.781E+03 -.124E+04 0.626E+03   0.780E+03 0.124E+04 -.626E+03   0.831E+00 0.774E+00 -.623E+00   -.104E-01 -.320E-01 0.260E-01
   0.129E+03 -.591E+03 -.131E+03   -.130E+03 0.591E+03 0.131E+03   0.480E+00 0.394E+00 0.876E-01   0.306E-01 0.120E-01 0.223E-01
   0.517E+03 -.124E+04 0.129E+04   -.515E+03 0.124E+04 -.129E+04   -.158E+01 0.335E+01 -.314E+01   -.195E-01 -.744E-01 0.323E-01
   -.575E+03 0.728E+03 -.156E+04   0.574E+03 -.727E+03 0.156E+04   0.118E+01 -.156E+01 0.321E+01   0.184E-02 0.197E-01 -.460E-01
   -.142E+04 0.201E+03 -.116E+04   0.141E+04 -.200E+03 0.115E+04   0.348E+01 -.558E+00 0.287E+01   0.256E-01 0.424E-01 -.101E-01
   0.101E+04 -.542E+02 -.156E+04   -.100E+04 0.532E+02 0.156E+04   -.391E+01 0.106E+01 0.337E+01   0.141E-01 -.933E-01 0.100E-01
   0.187E+03 0.157E+02 -.960E+03   -.187E+03 -.151E+02 0.958E+03   0.299E+00 -.548E+00 0.129E+01   0.356E-01 -.102E-01 -.634E-01
   -.628E+03 -.625E+03 -.420E+03   0.627E+03 0.624E+03 0.420E+03   0.776E+00 0.793E+00 0.744E+00   0.184E-01 0.448E-02 -.282E-01
   0.142E+04 -.942E+03 -.430E+03   -.142E+04 0.941E+03 0.430E+03   -.118E+01 0.125E+01 0.361E+00   0.179E-01 0.109E-01 -.219E-01
   -.156E+04 -.654E+03 -.697E+03   0.156E+04 0.653E+03 0.696E+03   0.309E+01 0.132E+01 0.101E+01   0.467E-01 0.581E-01 0.188E-01
   0.855E+03 -.163E+04 0.209E+03   -.854E+03 0.162E+04 -.209E+03   -.155E+01 0.421E+01 -.718E+00   -.127E-01 -.509E-01 -.378E-01
   -.414E+02 -.166E+04 0.497E+03   0.416E+02 0.166E+04 -.496E+03   -.191E+00 0.168E+01 -.858E+00   -.402E-01 -.735E-01 0.331E-01
   -.116E+04 -.149E+04 0.226E+02   0.116E+04 0.149E+04 -.217E+02   0.236E+01 0.423E+01 -.997E+00   -.222E-01 0.634E-02 0.180E-01
   -.201E+03 -.178E+04 -.298E+03   0.201E+03 0.178E+04 0.297E+03   0.154E+00 0.236E+01 0.683E+00   0.237E-01 0.157E-01 0.574E-01
   0.100E+04 -.730E+03 -.111E+04   -.100E+04 0.730E+03 0.111E+04   -.717E+00 -.101E+00 0.902E+00   0.197E-01 -.579E-01 -.874E-02
   0.832E+02 -.196E+03 -.179E+04   -.829E+02 0.195E+03 0.179E+04   -.304E+00 0.113E+01 0.438E+01   0.870E-02 0.592E-01 -.440E-01
   -.668E+03 -.505E+03 -.152E+04   0.667E+03 0.505E+03 0.151E+04   0.687E+00 0.156E+00 0.119E+01   -.234E-01 -.181E-02 -.329E-01
   0.656E+03 -.157E+04 -.664E+03   -.655E+03 0.157E+04 0.663E+03   -.450E+00 0.182E+01 0.108E+01   -.765E-02 -.175E-02 0.183E-01
   0.278E+03 -.117E+04 -.132E+04   -.277E+03 0.117E+04 0.132E+04   -.930E+00 0.112E+01 0.248E+01   -.667E-02 -.351E-02 -.362E-01
   -.633E+03 -.139E+04 -.113E+04   0.631E+03 0.138E+04 0.112E+04   0.149E+01 0.366E+01 0.298E+01   0.450E-03 -.130E-01 0.393E-01
   -.137E+01 -.284E+00 0.182E+01   -.455E-12 -.455E-12 0.205E-11   0.144E+01 0.299E+00 -.178E+01   -.997E-03 -.214E-01 0.405E-01

 POSITION                                       TOTAL-FORCE (eV/Angst)
      9.76723      7.73949      8.34028         0.060669      0.073086      0.073608
      8.89080      9.78200      6.60646        -0.053556      0.028928      0.065759
      7.37712      9.20173      9.15758         0.096831      0.041840      0.003527
     11.64342      9.70383      7.05619         0.033632     -0.061691      0.071149
     12.21034      7.05831     11.82335         0.019173      0.022927     -0.014647
     12.16805      8.69697      9.63426        -0.014474      0.036020     -0.040966
      9.60875      8.31425     11.17083         0.048924     -0.030047     -0.014085
     14.21643      9.98267      8.33144        -0.036570      0.030920     -0.002979
     14.55249      8.63758     11.61259        -0.033464      0.014610      0.011180
     13.10184      7.85543     14.33344        -0.064489      0.004344     -0.024888
      9.86251     10.41697      9.20138        -0.115873     -0.149485     -0.047269
     10.30000     12.34984      6.95305        -0.029209      0.023035      0.001438
      7.65238     11.91412      7.86428         0.031747     -0.012348      0.013182
     10.38180      7.49070     13.82238        -0.022609     -0.006868      0.001642
      6.63556     11.67813     10.47952         0.004337     -0.007052      0.028883
     13.10518     12.00473      6.56459         0.007492      0.041711      0.009118
      7.10712      9.26949     11.97014         0.002886     -0.013397     -0.052765
     14.12973     11.32562     11.03491        -0.043091      0.034379     -0.057048
     14.91563     12.71942      8.61178        -0.007511     -0.057315      0.042355
     12.10518     11.93983      9.29045         0.131090      0.045174      0.005574
     14.01673     10.50458     13.73441        -0.046016      0.020786      0.047012
     11.72931     10.05426     12.01731         0.007698     -0.007024      0.077080
     15.79728      8.42255     14.24001         0.009775     -0.000219     -0.039266
      9.14373     11.27883     11.76682        -0.006082     -0.048817      0.070249
     16.50042     10.49964      9.88076        -0.057708      0.023491      0.019361
      8.99158      9.84691     14.08637         0.056041      0.000104      0.006854
     16.60429     10.72034     12.64085        -0.024882      0.016898      0.034010
     12.20905     14.32777      7.89224        -0.004039      0.006790     -0.035572
      6.86696     14.21462      9.19884         0.056175     -0.013682      0.001087
      6.84502     11.67445     13.42144        -0.002619      0.003801      0.003803
     11.14891      9.16879     15.93578        -0.019372     -0.015986      0.018717
     16.26494     13.15396     11.18768        -0.008502     -0.041129     -0.025520
      9.46668     13.19790      9.77653        -0.023510      0.113444     -0.065918
     13.63489     14.29794     10.47193        -0.003564     -0.050402     -0.006815
     11.30969     13.04452     11.93314         0.068123      0.012000     -0.000012
      9.41902     15.00564      7.76960         0.007549     -0.026413      0.059436
     13.87423      9.72324     16.38147        -0.002451      0.016701     -0.025055
     16.28477     10.92097     15.46871         0.000205      0.012919      0.018378
      9.35283     11.43600     16.33286        -0.011071     -0.017385     -0.013671
     11.50003     11.51699     14.43015         0.025223      0.001580     -0.102305
     13.80379     13.25091     13.12024        -0.065473      0.024560     -0.038945
      7.59412     13.94905     11.94356        -0.001687      0.020129     -0.066922
     16.37603     13.37594     14.09721         0.010784     -0.056354     -0.026526
      8.49407     16.10671     10.38978         0.007343     -0.038969     -0.014952
     11.16469     15.52989     10.22201        -0.045820      0.003464     -0.028590
     15.41969     15.50341     12.42890         0.008682     -0.015062     -0.023315
     12.59322     15.84167     12.67482         0.014041     -0.015116      0.035400
      9.19331     13.06814     14.07456         0.018406      0.032301     -0.023882
     11.94349     11.69005     17.17829         0.049415     -0.004262      0.018895
     14.12812     12.67545     15.87386        -0.036652      0.002406      0.028847
      9.83828     15.48630     12.80403         0.016937     -0.026800     -0.005507
     11.66936     14.25607     14.90362        -0.025325      0.003521      0.001097
     14.27873     15.33121     14.98509         0.012440      0.003953      0.029780
    total drift:                                0.070394     -0.007404      0.081124

  FREE ENERGIE OF THE ION-ELECTRON SYSTEM (eV)
  free  energy   TOTEN  =      -116.88777979 eV

  energy  without entropy=     -116.88777979  energy(sigma->0) =     -116.88777979

 d Force = 0.1776272E-03[-0.110E-01, 0.114E-01]  d Energy =-0.8808888E-03 0.106E-02
 d Force = 0.2152780E+03[ 0.215E+03, 0.215E+03]  d Ewald  = 0.2152782E+03-0.239E-03

 reached required accuracy - stopping structural energy minimisation