 vasp.5.3.5 31Mar14 (build Feb 01 2018 12:10:03) gamma-only

 executed on             LinuxIFC date 2019.03.23  09:20:11

 INCAR:
 POTCAR:    PAW_PBE Ag 02Apr2005
 POTCAR:    PAW_PBE Ag 02Apr2005
   VRHFIN =Ag : s1 d10

   TITEL  = PAW_PBE Ag 02Apr2005
   POMASS =  107.868; ZVAL   =   11.000    mass and valenz
   ENMAX  =  249.844; ENMIN  =  187.383 eV

  PAW_PBE Ag 02Apr2005                  :

 POSCAR: Pt41, -205.56113482 <s> Ag </s>
  positions in direct lattice
 exchange correlation table for  LEXCH =        8
   RHO(1)=    0.500       N(1)  =     2000
   RHO(2)=  100.500       N(2)  =     4000

 ion  position               nearest neighbor table
   1  0.697  0.610  0.625-  19 2.72  37 2.74   2 2.77   7 2.84  29 2.91  11 2.93
   2  0.617  0.648  0.532-  31 2.73  10 2.74   1 2.77  37 2.80  36 2.82   7 2.87  11 2.92  15 2.93

   3  0.321  0.594  0.543-  26 2.70  12 2.71  17 2.75  24 2.76  34 2.81  14 2.81  38 3.40
   4  0.491  0.575  0.708-  39 2.67  24 2.74  16 2.78  38 2.79  37 2.84  29 2.92  11 3.41
   5  0.393  0.390  0.514-  26 2.70  22 2.73  13 2.74  35 2.79  34 2.80  20 2.84  18 3.04  33 3.38

[...]

   8  0.469  0.596  0.348-  21 2.65   9 2.68  31 2.79  28 2.82  23 2.90  33 2.93  14 2.95
   9  0.570  0.661  0.317-   8 2.68  31 2.73  28 2.73  36 2.80
  10  0.495  0.673  0.554-  31 2.66  16 2.69  12 2.71   2 2.74  14 2.78  38 2.79  37 2.94
  11  0.591  0.531  0.594-  18 2.70  29 2.72  15 2.72  19 2.72  38 2.73  39 2.88   2 2.92   1 2.93
                            37 2.99   7 3.37   4 3.41  32 3.52
  12  0.375  0.702  0.579-  10 2.71   3 2.71  24 2.75  16 2.82  14 2.92
  13  0.378  0.402  0.389-   5 2.74  23 2.75  20 2.76  26 2.79  21 2.81  33 3.49
  14  0.410  0.644  0.462-  17 2.68  31 2.75  10 2.78   3 2.81  33 2.86  12 2.92   8 2.95  38 3.53
                            21 3.57
  15  0.585  0.532  0.468-  33 2.71  11 2.72  41 2.79  18 2.80  28 2.82  36 2.84   2 2.93   7 2.95
                            40 3.09  31 3.10   6 3.15  38 3.59
  16  0.465  0.697  0.673-  10 2.69  37 2.72   4 2.78  24 2.80  12 2.82
  17  0.299  0.607  0.418-  14 2.68  21 2.69   3 2.75  26 2.85
  18  0.522  0.443  0.538-  11 2.70  33 2.71  38 2.77  27 2.79  15 2.80  22 2.83  30 2.89  20 2.91
                             5 3.04  35 3.14  39 3.30  41 3.51
  19  0.708  0.485  0.607-  11 2.72   1 2.72  32 2.72  25 2.73   7 2.78   6 2.80  29 3.24
  20  0.492  0.366  0.432-  27 2.74  41 2.75  13 2.76  35 2.76  23 2.77   5 2.84  18 2.91  33 3.48

[...]

  32  0.650  0.418  0.697-  39 2.72  19 2.72  30 2.73  25 2.78  29 2.82  11 3.52
  33  0.460  0.521  0.461-  18 2.71  15 2.71  38 2.72  26 2.76  23 2.80  14 2.86   8 2.93  21 3.07
                             5 3.38  20 3.48  13 3.49  31 3.49
  34  0.361  0.484  0.599-  38 2.70  22 2.77  26 2.80   5 2.80   3 2.81  24 2.86
  35  0.484  0.302  0.543-  20 2.76  30 2.76   5 2.79  22 2.81  27 2.82  18 3.14
  36  0.655  0.627  0.409-   7 2.78  31 2.80   9 2.80  40 2.81   2 2.82  15 2.84  28 2.89
  37  0.583  0.654  0.657-  16 2.72   1 2.74   2 2.80  29 2.82   4 2.84  10 2.94  11 2.99
  38  0.467  0.550  0.584-  34 2.70  33 2.72  11 2.73  24 2.73  18 2.77   4 2.79  10 2.79  39 3.32
                             3 3.40  14 3.53  15 3.59
  39  0.531  0.459  0.690-   4 2.67  22 2.71  32 2.72  29 2.75  30 2.79  11 2.88  18 3.30  38 3.32

  40  0.701  0.507  0.387-   6 2.70   7 2.78  28 2.79  41 2.81  36 2.81  15 3.09
  41  0.599  0.426  0.396-  28 2.72  20 2.75  15 2.79  27 2.80  40 2.81  23 2.83   6 2.84  18 3.51

  LATTYP: Found a simple cubic cell.
 ALAT       =    21.5613282440

  Lattice vectors:

 A1 = (  21.5613282440,   0.0000000000,   0.0000000000)
 A2 = (   0.0000000000,  21.5613282440,   0.0000000000)
 A3 = (   0.0000000000,   0.0000000000,  21.5613282440)

Analysis of symmetry for initial positions (statically):
 Subroutine PRICEL returns:
 Original cell was already a primitive cell.

 Routine SETGRP: Setting up the symmetry group for a
 simple cubic supercell.

 Subroutine GETGRP returns: Found  1 space group operations
 (whereof  1 operations were pure point group operations)
 out of a pool of 48 trial point group operations.

The static configuration has the point symmetry C_1 .

Analysis of symmetry for dynamics (positions and initial velocities):
 Subroutine PRICEL returns:
 Original cell was already a primitive cell.

 Routine SETGRP: Setting up the symmetry group for a
 simple cubic supercell.

 Subroutine GETGRP returns: Found  1 space group operations
 (whereof  1 operations were pure point group operations)
 out of a pool of 48 trial point group operations.

The dynamic configuration has the point symmetry C_1 .

Analysis of magnetic symmetry:
 Subroutine PRICEL returns:
 Original cell was already a primitive cell.

 Subroutine MAGSYM returns: Found  1 space group operations
 (whereof  1 operations were pure point group operations)
 out of a pool of  1 trial space group operations
 (whereof  1 operations were pure point group operations)
 and found also     1 'primitive' translations

The magnetic configuration has the point symmetry C_1 .

 KPOINTS: Gamma-point only
  k-points in reciprocal lattice
Space group operators:
 irot       det(A)        alpha          n_x          n_y          n_z        tau_x        tau_y        tau_z
    1     1.000000     0.000001     1.000000     0.000000     0.000000     0.000000     0.000000     0.000000

 I would recommend the setting:
   dimension x,y,z NGX =    83 NGY =   83 NGZ =   83
 SYSTEM =  unknown system
 POSCAR =  Pt41, -205.56113482 <s> Ag </s>

 Startparameter for this run:
   NWRITE =      2    write-flag & timer
   PREC   = normal    normal or accurate (medium, high low for compatibility)
   ISTART =      0    job   : 0-new  1-cont  2-samecut
   ICHARG =      2    charge: 1-file 2-atom 10-const
   ISPIN  =      2    spin polarized calculation?
   LNONCOLLINEAR =      F non collinear calculations
   LSORBIT =      F    spin-orbit coupling
   INIWAV =      1    electr: 0-lowe 1-rand  2-diag
   LASPH  =      F    aspherical Exc in radial PAW
   METAGGA=      F    non-selfconsistent MetaGGA calc.

 Electronic Relaxation 1
   ENCUT  =  249.8 eV  18.36 Ry    4.29 a.u.  27.79 27.79 27.79*2*pi/ulx,y,z
   ENINI  =  249.8     initial cutoff
   ENAUG  =  412.5 eV  augmentation charge cutoff
   NELM   =     60;   NELMIN=  2; NELMDL= -5     # of ELM steps
   EDIFF  = 0.1E-03   stopping-criterion for ELM
   LREAL  =      F    real-space projection
   NLSPLINE    = F    spline interpolate recip. space projectors
   LCOMPAT=      F    compatible to vasp.4.4
   GGA_COMPAT  = T    GGA compatible to vasp.4.4-vasp.4.6
   LMAXPAW     = -100 max onsite density
   LMAXMIX     =    2 max onsite mixed and CHGCAR
   VOSKOWN=      0    Vosko Wilk Nusair interpolation
   ROPT   =    0.00000
 Ionic relaxation
   EDIFFG = 0.1E-02   stopping-criterion for IOM
   NSW    =   1000    number of steps for IOM
   NBLOCK =      1;   KBLOCK =   1000    inner block; outer block
   IBRION =      2    ionic relax: 0-MD 1-quasi-New 2-CG
   NFREE  =      1    steps in history (QN), initial steepest desc. (CG)
   ISIF   =      2    stress and relaxation
   IWAVPR =     11    prediction:  0-non 1-charg 2-wave 3-comb
   ISYM   =      2    0-nonsym 1-usesym 2-fastsym
   LCORR  =      T    Harris-Foulkes like correction to forces

   POTIM  = 0.1000    time-step for ionic-motion
   TEIN   =    0.0    initial temperature
   TEBEG  =    0.0;   TEEND  =   0.0 temperature during run
   SMASS  =  -3.00    Nose mass-parameter (am)
   estimated Nose-frequenzy (Omega)   =  0.10E-29 period in steps =****** mass=  -0.106E-25a.u.
   SCALEE = 1.0000    scale energy and forces
   NPACO  =    256;   APACO  = 16.0  distance and # of slots for P.C.
   PSTRESS=    0.0 pullay stress

  Mass of Ions in am
   POMASS = 107.87
  Ionic Valenz
   ZVAL   =  11.00
  Atomic Wigner-Seitz radii
  virtual crystal weights
   VCA    =   1.00
   NELECT =     451.0000    total number of electrons
   NUPDOWN=      -1.0000    fix difference up-down

 DOS related values:
   EMIN   =  10.00;   EMAX   =-10.00  energy-range for DOS
   EFERMI =   0.00
   ISMEAR =     0;   SIGMA  =   0.00  broadening in eV -4-tet -1-fermi 0-gaus

 Electronic relaxation 2 (details)
   IALGO  =     38    algorithm
   LDIAG  =      T    sub-space diagonalisation (order eigenvalues)
   LSUBROT=      F    optimize rotation matrix (better conditioning)
   TURBO    =      0    0=normal 1=particle mesh
   IRESTART =      0    0=no restart 2=restart with 2 vectors
   NREBOOT  =      0    no. of reboots
   NMIN     =      0    reboot dimension
   EREF     =   0.00    reference energy to select bands
   IMIX   =      4    mixing-type and parameters
     AMIX     =   0.40;   BMIX     =  1.00
     AMIX_MAG =   1.60;   BMIX_MAG =  1.00
     AMIN     =   0.10
     WC   =   100.;   INIMIX=   1;  MIXPRE=   1;  MAXMIX= -45

 Intra band minimization:
   WEIMIN = 0.0010     energy-eigenvalue tresh-hold
   EBREAK =  0.86E-07  absolut break condition
   DEPER  =   0.30     relativ break condition

   TIME   =   0.40     timestep for ELM

  volume/ion in A,a.u.               =     244.48      1649.83
  Fermi-wavevector in a.u.,A,eV,Ry     =   0.582271  1.100332  4.612906  0.339039
  Thomas-Fermi vector in A             =   1.627108

 Write flags
   LWAVE  =      F    write WAVECAR
   LCHARG =      F    write CHGCAR
   LVTOT  =      F    write LOCPOT, total local potential
   LVHAR  =      F    write LOCPOT, Hartree potential only
   LELF   =      F    write electronic localiz. function (ELF)
   LORBIT =      0    0 simple, 1 ext, 2 COOP (PROOUT)

 Dipole corrections
   LMONO  =      F    monopole corrections only (constant potential shift)
   LDIPOL =      F    correct potential (dipole corrections)
   IDIPOL =      0    1-x, 2-y, 3-z, 4-all directions
   EPSILON=  1.0000000 bulk dielectric constant

 Exchange correlation treatment:
   GGA     =    PE    GGA type
   VOSKOWN=      0    Vosko Wilk Nusair interpolation
   LHFCALC =     F    Hartree Fock is set to
   LHFONE  =     F    Hartree Fock one center treatment
   AEXX    =    0.0000 exact exchange contribution

 Linear response parameters
   LEPSILON=     F    determine dielectric tensor
   LRPA    =     F    only Hartree local field effects (RPA)
   LNABLA  =     F    use nabla operator in PAW spheres
   LVEL    =     F    velocity operator in full k-point grid
   LINTERFAST=   F  fast interpolation
   KINTER  =     0    interpolate to denser k-point grid
   CSHIFT  =0.1000    complex shift for real part using Kramers Kronig
   OMEGAMAX=  -1.0    maximum frequency
   DEG_THRESHOLD= 0.2000000E-02 threshold for treating states as degnerate
   RTIME   =    0.100 relaxation time in fs

 Orbital magnetization related:
   ORBITALMAG=     F  switch on orbital magnetization
   LCHIMAG   =     F  perturbation theory with respect to B field
   DQ        =  0.001000  dq finite difference perturbation B field

 conjugate gradient relaxation of ions
 charge density and potential will be updated during run
 spin polarized calculation
 Variant of blocked Davidson
 Davidson routine will perform the subspace rotation
 perform sub-space diagonalisation
[...]
 g(Force)  = 0.703E-04   g(Stress)= 0.000E+00 ortho     = 0.101E-03
 gamma     =  -0.09611
 trial     =   6.74910
 opt step  =  17.67746  (harmonic =  17.67746) maximal distance =0.00294565
 next E    =   -87.941133   (d E  =  -0.00054)

 FEWALD executed in parallel

[...]

 eigenvalue-minimisations  :  1256
 total energy-change (2. order) :-0.1869509E-03  (-0.1945137E-03)
 number of electron     451.0000872 magnetization       1.0000000
 augmentation part      216.3491630 magnetization      -0.0003480

 Broyden mixing:
  rms(total) = 0.33008E-02    rms(broyden)= 0.32984E-02
  rms(prec ) = 0.33984E-02
  weight for this iteration     100.00

 eigenvalues of (default mixing * dielectric matrix)
  average eigenvalue GAMMA=   0.8901
  0.8901

[...]

----------------------------------------- Iteration   48(   3)  ---------------------------------------

 eigenvalue-minimisations  :   728
 total energy-change (2. order) : 0.6806142E-05  (-0.3048001E-05)
 number of electron     451.0000872 magnetization       1.0000000
 augmentation part      216.3491630 magnetization      -0.0003480

 Free energy of the ion-electron system (eV)
  alpha Z        PSCENC =       142.64460825
  Ewald energy   TEWEN  =    101403.84475117
  -Hartree energ DENC   =   -142283.50261442
  -exchange      EXHF   =         0.00000000
  -V(xc)+E(xc)   XCENC  =      -464.21998862
  PAW double counting   =     44364.64106124   -42549.76134094
  entropy T*S    EENTRO =         0.00000000
  eigenvalues    EBANDS =     -3226.73167392
  atomic energy  EATOM  =     42525.14383354
  free energy    TOTEN  =       -87.94136370 eV

  energy without entropy =      -87.94136370  energy(sigma->0) =      -87.94136370

 average (electrostatic) potential at core
  the test charge radii are     1.1249
  (the norm of the test charge is              1.0000)
       1 -82.1540       2 -82.1556       3 -82.1460       4 -82.1657       5 -82.1682
       6 -82.1812       7 -82.3086       8 -82.2585       9 -81.8891      10 -82.1641
      11 -82.3298      12 -81.8892      13 -82.1076      14 -82.0718      15 -82.1188
      16 -81.8189      17 -81.8379      18 -82.1996      19 -82.1002      20 -82.0682
      21 -82.2124      22 -82.0330      23 -82.0316      24 -82.0292      25 -81.9200
      26 -82.1601      27 -82.0357      28 -81.9848      29 -82.1000      30 -82.0704
      31 -81.9589      32 -81.9419      33 -82.3370      34 -81.9969      35 -81.9014
      36 -82.1489      37 -82.1019      38 -82.2225      39 -82.1481      40 -81.9726
      41 -82.1238

 E-fermi :  -3.2648     XC(G=0):  -1.4321     alpha+bet : -0.9389

[...]

 spin component 2

 k-point     1 :       0.0000    0.0000    0.0000
  band No.  band energies     occupation
      1      -9.5368      1.00000
      2      -9.0823      1.00000
      3      -8.9705      1.00000
      4      -8.9414      1.00000
      5      -8.8758      1.00000
      6      -8.8580      1.00000
      7      -8.8501      1.00000
      8      -8.8162      1.00000
      9      -8.7967      1.00000
     10      -8.7864      1.00000
     11      -8.7582      1.00000
     12      -8.7500      1.00000
     13      -8.7243      1.00000
     14      -8.7077      1.00000
     15      -8.6859      1.00000
     16      -8.6642      1.00000
     17      -8.6330      1.00000
     18      -8.6101      1.00000
     19      -8.5905      1.00000
     20      -8.5710      1.00000
     21      -8.5616      1.00000
     22      -8.5480      1.00000
     23      -8.5336      1.00000
     24      -8.5227      1.00000
     25      -8.5051      1.00000
     26      -8.4776      1.00000
     27      -8.4748      1.00000
     28      -8.4657      1.00000
     29      -8.4428      1.00000
     30      -8.4176      1.00000
     31      -8.3983      1.00000
     32      -8.3871      1.00000
     33      -8.3822      1.00000
     34      -8.3681      1.00000
     35      -8.3438      1.00000
     36      -8.3333      1.00000
     37      -8.3154      1.00000
     38      -8.3010      1.00000
     39      -8.2792      1.00000
     40      -8.2720      1.00000
     41      -8.2599      1.00000
     42      -8.2521      1.00000
     43      -8.2200      1.00000
     44      -8.2147      1.00000
     45      -8.2006      1.00000
     46      -8.1638      1.00000
     47      -8.1530      1.00000
     48      -8.1499      1.00000
     49      -8.1262      1.00000
     50      -8.1141      1.00000
     51      -8.1012      1.00000
     52      -8.0834      1.00000
     53      -8.0738      1.00000
     54      -8.0599      1.00000
     55      -8.0426      1.00000
     56      -8.0295      1.00000
     57      -8.0200      1.00000
     58      -8.0051      1.00000
     59      -7.9948      1.00000
     60      -7.9760      1.00000
[...]
    278       1.2154      0.00000
    279       1.2307      0.00000
    280       1.2345      0.00000
    281       1.2618      0.00000
    282       1.2755      0.00000
    283       1.2997      0.00000
    284       1.3097      0.00000
    285       1.3483      0.00000
    286       1.3669      0.00000
    287       1.3798      0.00000
    288       1.4410      0.00000
    289       1.4645      0.00000
    290       1.5079      0.00000
    291       1.5244      0.00000
    292       1.5432      0.00000

[...]

 soft charge-density along one line, spin component           2
         0         1         2         3         4         5         6         7         8         9
 total charge-density along one line

------------------------ aborting loop because EDIFF is reached ----------------------------------------

  FORCE on cell =-STRESS in cart. coord.  units (eV):
  Direction    XX          YY          ZZ          XY          YZ          ZX
  Alpha Z   142.64461   142.64461   142.64461
  Ewald   37989.14619 30536.05240 32878.55204 -2450.78450   421.38329  4578.05634
  Hartree 51427.85213 44328.34420 46527.30613 -2234.57263   385.35684  4137.33121
  E(xc)   -2377.65912 -2377.93474 -2377.69106    -0.43931     0.02087     0.94027
  Local  -96147.84067-81602.31400-86137.67117  4683.84892  -808.02246 -8705.86257
  n-local  -425.92577  -424.48525  -425.13906    -0.71380     0.50632    -0.28213
  augment  3766.76473  3768.35732  3766.81079     0.88230     0.28681    -2.87186
  Kinetic  5610.73726  5615.31908  5611.19576     1.78164     0.47431    -7.13578
  Fock        0.00000     0.00000     0.00000     0.00000     0.00000     0.00000
  Total     -14.28063   -14.01637   -13.99195     0.00261     0.00599     0.17548
  in kB      -2.28261    -2.24037    -2.23647     0.00042     0.00096     0.02805

 VOLUME and BASIS-vectors are now :
  energy-cutoff  :      249.84
  volume of cell :    10023.66
      direct lattice vectors                 reciprocal lattice vectors
    21.561328244  0.000000000  0.000000000     0.046379332  0.000000000  0.000000000
     0.000000000 21.561328244  0.000000000     0.000000000  0.046379332  0.000000000
     0.000000000  0.000000000 21.561328244     0.000000000  0.000000000  0.046379332

  length of vectors
    21.561328244 21.561328244 21.561328244     0.046379332  0.046379332  0.046379332

 FORCES acting on ions
    electron-ion (+dipol)            ewald-force                    non-local-force                 convergence-correction
   -.132E+04 -.829E+03 -.683E+03   0.131E+04 0.828E+03 0.682E+03   0.413E+01 0.135E+01 0.120E+01   -.156E-01 -.828E-02 -.123E-01
   -.787E+03 -.141E+04 0.287E+02   0.786E+03 0.141E+04 -.291E+02   0.127E+01 0.238E+01 0.380E+00   0.386E-02 -.240E-01 -.385E-02
   0.142E+04 -.483E+03 -.344E+03   -.141E+04 0.483E+03 0.343E+03   -.215E+01 0.732E+00 0.103E+01   -.309E-01 0.268E-02 0.159E-01
   0.250E+03 -.336E+03 -.151E+04   -.250E+03 0.336E+03 0.150E+04   0.180E+00 0.167E-01 0.281E+01   -.483E-02 0.928E-03 -.652E-02
   0.110E+04 0.112E+04 -.479E+02   -.110E+04 -.112E+04 0.480E+02   -.102E+01 -.122E+01 -.566E-01   -.299E-02 -.144E-02 0.165E-01
   -.123E+04 0.642E+03 0.276E+03   0.123E+04 -.642E+03 -.276E+03   0.537E+00 0.350E+00 0.122E+00   0.112E-01 0.327E-01 -.135E-01
   -.153E+04 -.414E+03 0.168E+03   0.153E+04 0.413E+03 -.168E+03   0.260E+01 0.549E+00 -.802E-01   -.281E-01 0.264E-01 0.191E-01
   0.345E+03 -.612E+03 0.128E+04   -.345E+03 0.611E+03 -.128E+04   0.231E+00 0.851E+00 -.170E+01   0.202E-02 -.815E-02 0.401E-02
   -.241E+03 -.993E+03 0.124E+04   0.241E+03 0.989E+03 -.123E+04   -.943E-01 0.419E+01 -.474E+01   -.120E-01 0.132E-01 -.705E-02
   0.165E+03 -.112E+04 -.185E+03   -.164E+03 0.112E+04 0.183E+03   -.640E+00 -.865E-02 0.146E+01   0.118E-01 -.102E-01 -.104E-02
   -.485E+03 -.215E+03 -.496E+03   0.484E+03 0.215E+03 0.495E+03   0.157E+01 0.752E-01 0.463E+00   0.205E-01 0.572E-02 0.328E-01
   0.847E+03 -.138E+04 -.170E+03   -.845E+03 0.137E+04 0.171E+03   -.220E+01 0.470E+01 -.359E+00   -.339E-02 0.292E-02 -.156E-01
   0.102E+04 0.935E+03 0.102E+04   -.102E+04 -.932E+03 -.101E+04   -.238E+01 -.320E+01 -.302E+01   -.892E-02 -.230E-01 -.102E-01
   0.725E+03 -.984E+03 0.495E+03   -.723E+03 0.984E+03 -.494E+03   -.179E+01 -.128E+00 -.469E+00   0.600E-03 -.300E-01 0.107E-01
   -.355E+03 -.227E+03 0.448E+03   0.355E+03 0.226E+03 -.447E+03   0.549E+00 0.801E+00 -.994E+00   -.165E-01 0.228E-01 0.147E-02
   0.354E+03 -.124E+04 -.100E+04   -.353E+03 0.123E+04 0.100E+04   -.101E+01 0.415E+01 0.197E+01   0.512E-02 -.544E-02 -.662E-02
   0.130E+04 -.623E+03 0.578E+03   -.130E+04 0.620E+03 -.576E+03   -.406E+01 0.346E+01 -.286E+01   0.356E-02 0.688E-02 -.166E-01
   -.109E+03 0.683E+03 -.110E+03   0.109E+03 -.682E+03 0.109E+03   0.795E-01 -.190E+01 0.720E+00   0.128E-01 0.448E-02 0.405E-02
   -.145E+04 0.194E+03 -.585E+03   0.144E+04 -.195E+03 0.583E+03   0.213E+01 0.735E+00 0.196E+01   0.141E-01 0.207E-01 -.112E-01
   0.194E+03 0.137E+04 0.862E+03   -.194E+03 -.137E+04 -.860E+03   -.350E+00 -.178E+01 -.131E+01   0.555E-02 -.847E-02 -.355E-02
   0.995E+03 -.217E+03 0.129E+04   -.993E+03 0.217E+03 -.128E+04   -.236E+01 0.167E-01 -.382E+01   0.122E-01 -.383E-01 -.255E-01
   0.771E+03 0.997E+03 -.109E+04   -.769E+03 -.995E+03 0.108E+04   -.140E+01 -.200E+01 0.245E+01   0.348E-02 0.447E-02 -.426E-02
   0.185E+03 0.560E+03 0.156E+04   -.184E+03 -.559E+03 -.156E+04   -.151E+01 -.606E+00 -.297E+01   0.997E-02 0.386E-04 -.167E-02
   0.103E+04 -.391E+03 -.117E+04   -.103E+04 0.391E+03 0.117E+04   -.166E+01 0.451E+00 0.269E+01   0.897E-02 -.939E-03 -.163E-01
   -.117E+04 0.109E+04 -.328E+03   0.117E+04 -.109E+04 0.328E+03   0.311E+01 -.345E+01 -.615E+00   -.912E-02 -.110E-01 0.147E-01
   0.148E+04 0.388E+03 0.221E+03   -.148E+04 -.388E+03 -.221E+03   -.206E+01 -.313E+00 -.434E+00   0.169E-01 -.895E-02 0.124E-01
   -.671E+03 0.149E+04 0.394E+03   0.670E+03 -.148E+04 -.392E+03   0.109E+01 -.390E+01 -.190E+01   0.373E-02 -.698E-02 -.959E-03
   -.563E+03 0.251E+02 0.152E+04   0.562E+03 -.248E+02 -.152E+04   0.103E+01 -.276E+00 -.242E+01   -.123E-01 0.290E-02 -.260E-03
   -.670E+03 -.228E+03 -.150E+04   0.669E+03 0.226E+03 0.150E+04   0.148E+01 0.170E+01 0.345E+01   -.311E-03 0.640E-02 -.411E-02
   -.186E+03 0.133E+04 -.873E+03   0.186E+03 -.133E+04 0.871E+03   0.956E-01 -.246E+01 0.179E+01   0.210E-01 0.107E-01 0.567E-02
   0.260E+02 -.148E+04 0.561E+03   -.256E+02 0.148E+04 -.561E+03   -.425E+00 0.257E+01 -.809E+00   -.146E-01 0.301E-02 0.831E-02
   -.714E+03 0.692E+03 -.129E+04   0.713E+03 -.691E+03 0.128E+04   0.970E+00 -.178E+01 0.412E+01   -.318E-02 -.807E-02 0.472E-02
   0.471E+03 0.186E+03 0.483E+03   -.470E+03 -.186E+03 -.482E+03   -.523E+00 -.968E+00 -.126E+01   0.276E-01 -.207E-01 -.192E-01
   0.133E+04 0.464E+03 -.872E+03   -.132E+04 -.462E+03 0.870E+03   -.282E+01 -.116E+01 0.255E+01   -.181E-01 0.225E-02 0.720E-03
   0.394E+03 0.163E+04 -.145E+03   -.393E+03 -.162E+04 0.144E+03   -.767E+00 -.378E+01 0.109E+01   0.282E-02 -.228E-02 -.354E-02
   -.107E+04 -.943E+03 0.791E+03   0.106E+04 0.941E+03 -.790E+03   0.179E+01 0.162E+01 -.157E+01   -.763E-02 -.832E-02 0.267E-01
   -.484E+03 -.128E+04 -.934E+03   0.483E+03 0.128E+04 0.931E+03   0.123E+01 0.221E+01 0.234E+01   -.267E-02 0.790E-02 -.586E-02
   0.553E+03 0.167E+02 -.538E+03   -.552E+03 -.165E+02 0.539E+03   -.122E+01 -.228E+00 -.675E+00   0.371E-01 0.164E-01 0.708E-02
   0.127E+03 0.493E+03 -.138E+04   -.126E+03 -.493E+03 0.138E+04   -.935E-01 -.605E-01 0.145E+01   -.787E-02 -.323E-02 -.509E-02
   -.139E+04 0.205E+03 0.943E+03   0.139E+04 -.204E+03 -.942E+03   0.419E+01 -.114E+01 -.170E+01   0.131E-02 0.632E-02 0.578E-03
   -.656E+03 0.890E+03 0.109E+04   0.655E+03 -.889E+03 -.109E+04   0.779E+00 -.709E+00 -.152E+01   -.234E-01 0.338E-01 0.997E-02
   0.144E+01 -.194E+01 0.127E+01   0.796E-12 -.455E-12 0.114E-11   -.150E+01 0.183E+01 -.124E+01   0.138E-01 0.587E-02 0.530E-03

 POSITION                                       TOTAL-FORCE (eV/Angst)
     15.09879     13.41250     13.56879         0.003677      0.008868      0.006700
     13.44947     14.39614     11.40338        -0.010018      0.009069      0.000189
      6.80662     12.79116     11.85234        -0.028888      0.006036      0.001565
     10.91602     12.60314     14.90966         0.007818      0.002325      0.003724
      8.47755      8.44836     11.05921         0.001238     -0.004157     -0.002446
     14.38827      9.57747     10.83355         0.004986     -0.003446      0.005103
     15.14229     12.23810     10.99432         0.003939     -0.001065     -0.005147
     10.52086     12.63448      7.79494        -0.002111      0.002601      0.000535
     12.37724     14.35805      6.71951        -0.002295      0.004906      0.006428
     10.73772     13.93871     12.11238        -0.002161     -0.008046     -0.000983
     12.76099     11.89601     12.76062         0.003198     -0.003482      0.002684
      8.27545     15.14122     12.25588         0.003740     -0.006604     -0.010533
      8.10053      8.84735      8.27042         0.002529     -0.017175      0.004028
      8.87652     13.41691     10.01545        -0.005197     -0.030017      0.005482
     12.32715     11.74960     10.05015        -0.015556      0.021142      0.023615
      9.93451     15.21495     14.59407        -0.001207      0.003620     -0.006468
      5.99637     13.11049      9.27230         0.015234     -0.007490     -0.007422
     11.58757      9.29864     11.49880         0.009664     -0.000542      0.000472
     15.28509     10.54002     13.30652         0.006004     -0.004515      0.004600
     10.55752      7.76132      9.19441         0.000475     -0.001287      0.001048
      7.94662     11.66842      7.89672         0.004812     -0.027622     -0.007224
      9.56237      8.46109     13.56947        -0.000175      0.001605      0.000840
     10.52037      9.86313      7.12710        -0.006786     -0.001324     -0.013260
      8.31796     12.94957     14.10055         0.003066      0.000483     -0.013083
     14.92957      7.76516     12.83402        -0.000299      0.008245     -0.006584
      6.87152     10.56531     10.23857         0.014972      0.008741     -0.001041
     13.04018      7.10745     10.70945         0.004284      0.005911     -0.000399
     12.88802     11.55124      6.91227         0.003409      0.008610     -0.004531
     13.65390     11.76582     15.41947         0.003545     -0.002516      0.010034
     12.27531      7.41880     13.53940        -0.008006     -0.001020     -0.000317
     11.45562     14.63685      9.46714        -0.010696      0.004414      0.001065
     14.10713      8.91938     15.22351         0.001359      0.006182     -0.001885
      9.79091     10.63812      9.74036         0.003759     -0.020989     -0.003611
      7.42654     10.29312     13.06491         0.007285      0.004917     -0.000738
     10.40409      6.46068     11.65714         0.003835      0.000449      0.001947
     14.05067     13.56433      8.73047        -0.009296      0.007173     -0.007541
     12.65822     14.59430     14.12519         0.000994      0.007059     -0.002743
      9.94041     11.23508     12.53548        -0.003675     -0.011196     -0.006249
     11.62427      9.96372     14.56125         0.001189      0.002730      0.006819
     15.09652     10.96177      8.47768        -0.002078      0.009391     -0.002211
     12.81965      9.23839      8.59950        -0.006566      0.018015      0.017538
    total drift:                               -0.045612     -0.106266      0.038647

  FREE ENERGIE OF THE ION-ELECTRON SYSTEM (eV)
  free  energy   TOTEN  =       -87.94136370 eV

  energy  without entropy=      -87.94136370  energy(sigma->0) =      -87.94136370

 d Force = 0.2798415E-03[ 0.150E-03, 0.409E-03]  d Energy = 0.4242988E-03-0.144E-03
 d Force =-0.6075993E+01[-0.608E+01,-0.607E+01]  d Ewald  =-0.6075992E+01-0.800E-06

 reached required accuracy - stopping structural energy minimisation