 vasp.5.3.5 31Mar14 (build Feb 01 2018 12:10:03) gamma-only

 executed on             LinuxIFC date 2019.03.25  05:52:35

 INCAR:
 POTCAR:    PAW_PBE Ag 02Apr2005
 POTCAR:    PAW_PBE Ag 02Apr2005
   VRHFIN =Ag : s1 d10

   TITEL  = PAW_PBE Ag 02Apr2005
   POMASS =  107.868; ZVAL   =   11.000    mass and valenz
   ENMAX  =  249.844; ENMIN  =  187.383 eV

  PAW_PBE Ag 02Apr2005                  :

 POSCAR: Ti53, -356.49445149 <s> Ag </s>
  positions in direct lattice
 exchange correlation table for  LEXCH =        8
   RHO(1)=    0.500       N(1)  =     2000
   RHO(2)=  100.500       N(2)  =     4000

 ion  position               nearest neighbor table
   1  0.427  0.339  0.348-   4 2.60   3 2.71   6 2.73   8 2.74   2 2.75  12 2.84
   2  0.449  0.263  0.433-   9 2.57   3 2.58   4 2.73   8 2.74   1 2.75  10 2.78
   3  0.533  0.313  0.384-   2 2.58   6 2.67  15 2.68   1 2.71   8 2.74  10 2.82
   4  0.356  0.333  0.433-   1 2.60   9 2.70  14 2.70   2 2.73   8 2.75  12 2.88
   5  0.428  0.492  0.303-   7 2.56  12 2.61  17 2.69   6 2.83  18 2.87  13 2.91
   6  0.513  0.417  0.342-  17 2.54   3 2.67   1 2.73   7 2.83   5 2.83  15 2.88   8 3.00  16 3.15
                            12 3.20
   7  0.531  0.523  0.288-   5 2.56  16 2.61  17 2.65  19 2.76   6 2.83  13 2.85
   8  0.463  0.377  0.452-  10 2.62  12 2.66   2 2.74   1 2.74   3 2.74   9 2.75   4 2.75  23 2.78
                            14 2.99   6 3.00  15 3.03  22 3.10  17 3.50  26 3.55
   9  0.413  0.303  0.529-   2 2.57   4 2.70  14 2.71  22 2.72   8 2.75  10 2.87
  10  0.533  0.307  0.504-   8 2.62   2 2.78   3 2.82  24 2.83   9 2.87  15 2.95  22 2.99
  11  0.303  0.485  0.450-  20 2.58  12 2.60  26 2.74  18 2.78  25 2.84  14 2.85
  12  0.391  0.444  0.397-  11 2.60   5 2.61   8 2.66   1 2.84  18 2.87   4 2.88  17 2.88  26 2.90
                            14 3.16   6 3.20
  13  0.457  0.610  0.331-  19 2.76  18 2.81  29 2.83  27 2.84   7 2.85  41 2.85  17 2.91   5 2.91

  14  0.360  0.406  0.522-  26 2.62   4 2.70   9 2.71  11 2.85  20 2.91  21 2.92   8 2.99  22 3.05
                            12 3.16
  15  0.589  0.397  0.437-   3 2.68  24 2.72  30 2.87   6 2.88  23 2.92  10 2.95   8 3.03  16 3.14
                            17 3.60
  16  0.612  0.506  0.363-   7 2.61  36 2.70  30 2.78  17 2.84  19 2.86  15 3.14   6 3.15  37 3.24

  17  0.495  0.510  0.394-   6 2.54   7 2.65  29 2.66   5 2.69  23 2.71  16 2.84  37 2.85  12 2.88
                            13 2.91  26 3.32  19 3.41  18 3.44   8 3.50  15 3.60
  18  0.359  0.560  0.377-  27 2.72  25 2.77  11 2.78  29 2.81  13 2.81  12 2.87   5 2.87  26 3.37
                            17 3.44
  19  0.574  0.619  0.340-  37 2.69   7 2.76  13 2.76  36 2.81  40 2.84  16 2.86  41 2.96  17 3.41

  20  0.306  0.511  0.556-  11 2.58  21 2.60  26 2.64  25 2.69  34 2.84  14 2.91
  21  0.392  0.479  0.618-  28 2.57  20 2.60  34 2.70  35 2.75  26 2.80  42 2.80  14 2.92  22 3.00

  22  0.473  0.386  0.584-   9 2.72  35 2.75  24 2.79  28 2.90  23 2.95  10 2.99  21 3.00  14 3.05
                            32 3.09   8 3.10
  23  0.514  0.472  0.502-  24 2.62  26 2.70  17 2.71   8 2.78  30 2.79  15 2.92  22 2.95  35 2.95
                            44 3.10  37 3.33  38 3.41  29 3.53
  24  0.586  0.403  0.552-  23 2.62  33 2.71  15 2.72  22 2.79  31 2.83  10 2.83  38 2.92  30 3.08
                            32 3.10  35 3.23
  25  0.326  0.598  0.484-  20 2.69  18 2.77  27 2.83  11 2.84  26 2.85  34 2.88  29 2.94  39 3.09

  26  0.404  0.507  0.503-  14 2.62  29 2.63  20 2.64  23 2.70  11 2.74  34 2.79  21 2.80  25 2.85
                            12 2.90  17 3.32  18 3.37  44 3.50   8 3.55
  27  0.384  0.670  0.406-  29 2.50  18 2.72  41 2.75  25 2.83  13 2.84  39 2.85
  28  0.448  0.428  0.697-  45 2.56  21 2.57  35 2.62  32 2.72  22 2.90  42 3.05
  29  0.447  0.596  0.450-  27 2.50  39 2.54  37 2.60  26 2.63  17 2.66  18 2.81  13 2.83  41 2.83
                            25 2.94  44 3.13  34 3.47  48 3.51  23 3.53
  30  0.625  0.506  0.480-  38 2.67  31 2.71  37 2.75  36 2.77  16 2.78  23 2.79  43 2.86  15 2.87
                            49 3.07  24 3.08
  31  0.699  0.442  0.541-  33 2.60  43 2.65  30 2.71  47 2.71  24 2.83  38 2.88
  32  0.560  0.402  0.681-  33 2.59  35 2.72  28 2.72  45 2.73  46 2.83  22 3.09  24 3.10
  33  0.661  0.409  0.640-  47 2.50  32 2.59  31 2.60  24 2.71  46 2.72  38 2.94
  34  0.393  0.589  0.587-  39 2.70  21 2.70  26 2.79  42 2.82  20 2.84  50 2.88  44 2.88  25 2.88
                            29 3.47
  35  0.508  0.489  0.626-  28 2.62  42 2.71  44 2.72  32 2.72  21 2.75  22 2.75  38 2.75  45 2.76
                            23 2.95  51 3.10  24 3.23  46 3.47
  36  0.665  0.595  0.414-  40 2.62  37 2.67  16 2.70  30 2.77  19 2.81  49 2.84  43 3.45
  37  0.557  0.597  0.451-  29 2.60  40 2.63  36 2.67  19 2.69  49 2.70  30 2.75  48 2.80  17 2.85
                            44 2.87  41 2.91  16 3.24  23 3.33
  38  0.617  0.517  0.593-  52 2.62  30 2.67  43 2.73  35 2.75  47 2.76  46 2.81  31 2.88  24 2.92
                            33 2.94  44 3.02  49 3.05  51 3.30  23 3.41
  39  0.427  0.676  0.520-  29 2.54  48 2.63  34 2.70  27 2.85  50 2.99  25 3.09  44 3.10  41 3.19

[...]

  42  0.442  0.557  0.692-  45 2.69  35 2.71  51 2.76  21 2.80  34 2.82  50 2.95  28 3.05  44 3.49

  43  0.716  0.553  0.545-  49 2.55  47 2.61  31 2.65  38 2.73  30 2.86  52 2.96  36 3.45
  44  0.513  0.587  0.565-  50 2.63  35 2.72  48 2.74  37 2.87  34 2.88  53 2.90  38 3.02  23 3.10
                            39 3.10  29 3.13  51 3.17  49 3.21  42 3.49  26 3.50
  45  0.523  0.493  0.742-  28 2.56  46 2.62  42 2.69  51 2.71  32 2.73  35 2.76
  46  0.629  0.496  0.710-  45 2.62  33 2.72  47 2.74  38 2.81  32 2.83  52 2.87  51 2.91  35 3.47

  47  0.723  0.497  0.640-  33 2.50  43 2.61  31 2.71  52 2.71  46 2.74  38 2.76
  48  0.537  0.692  0.520-  39 2.63  53 2.66  44 2.74  40 2.76  37 2.80  41 2.83  49 2.84  50 3.16
                            29 3.51
  49  0.638  0.627  0.527-  43 2.55  37 2.70  53 2.72  40 2.83  48 2.84  36 2.84  38 3.05  30 3.07
                            52 3.10  44 3.21
  50  0.476  0.665  0.636-  53 2.61  44 2.63  51 2.83  34 2.88  42 2.95  39 2.99  48 3.16
  51  0.554  0.593  0.693-  53 2.63  45 2.71  42 2.76  52 2.81  50 2.83  46 2.91  35 3.10  44 3.17
                            38 3.30
  52  0.667  0.597  0.653-  38 2.62  53 2.70  47 2.71  51 2.81  46 2.87  43 2.96  49 3.10
  53  0.585  0.671  0.620-  50 2.61  51 2.63  48 2.66  52 2.70  49 2.72  44 2.90

  LATTYP: Found a simple cubic cell.
 ALAT       =    23.4879464279

  Lattice vectors:

 A1 = (  23.4879464279,   0.0000000000,   0.0000000000)
 A2 = (   0.0000000000,  23.4879464279,   0.0000000000)
 A3 = (   0.0000000000,   0.0000000000,  23.4879464279)

Analysis of symmetry for initial positions (statically):
 Subroutine PRICEL returns:
 Original cell was already a primitive cell.

 Routine SETGRP: Setting up the symmetry group for a
 simple cubic supercell.

 Subroutine GETGRP returns: Found  1 space group operations
 (whereof  1 operations were pure point group operations)
 out of a pool of 48 trial point group operations.

The static configuration has the point symmetry C_1 .

Analysis of symmetry for dynamics (positions and initial velocities):
 Subroutine PRICEL returns:
 Original cell was already a primitive cell.

 Routine SETGRP: Setting up the symmetry group for a
 simple cubic supercell.

 Subroutine GETGRP returns: Found  1 space group operations
 (whereof  1 operations were pure point group operations)
 out of a pool of 48 trial point group operations.

The dynamic configuration has the point symmetry C_1 .

Analysis of magnetic symmetry:
 Subroutine PRICEL returns:
 Original cell was already a primitive cell.

 Subroutine MAGSYM returns: Found  1 space group operations
 (whereof  1 operations were pure point group operations)
 out of a pool of  1 trial space group operations
 (whereof  1 operations were pure point group operations)
 and found also     1 'primitive' translations

The magnetic configuration has the point symmetry C_1 .

 KPOINTS: Gamma-point only
  k-points in reciprocal lattice
Space group operators:
 irot       det(A)        alpha          n_x          n_y          n_z        tau_x        tau_y        tau_z
    1     1.000000     0.000001     1.000000     0.000000     0.000000     0.000000     0.000000     0.000000

 I would recommend the setting:
   dimension x,y,z NGX =    91 NGY =   91 NGZ =   91
 SYSTEM =  unknown system
 POSCAR =  Ti53, -356.49445149 <s> Ag </s>

 Startparameter for this run:
   NWRITE =      2    write-flag & timer
   PREC   = normal    normal or accurate (medium, high low for compatibility)
   ISTART =      0    job   : 0-new  1-cont  2-samecut
   ICHARG =      2    charge: 1-file 2-atom 10-const
   ISPIN  =      2    spin polarized calculation?
   LNONCOLLINEAR =      F non collinear calculations
   LSORBIT =      F    spin-orbit coupling
   INIWAV =      1    electr: 0-lowe 1-rand  2-diag
   LASPH  =      F    aspherical Exc in radial PAW
   METAGGA=      F    non-selfconsistent MetaGGA calc.

 Electronic Relaxation 1
   ENCUT  =  249.8 eV  18.36 Ry    4.29 a.u.  30.27 30.27 30.27*2*pi/ulx,y,z
   ENINI  =  249.8     initial cutoff
   ENAUG  =  412.5 eV  augmentation charge cutoff
   NELM   =     60;   NELMIN=  2; NELMDL= -5     # of ELM steps
   EDIFF  = 0.1E-03   stopping-criterion for ELM
   LREAL  =      F    real-space projection
   NLSPLINE    = F    spline interpolate recip. space projectors
   LCOMPAT=      F    compatible to vasp.4.4
   GGA_COMPAT  = T    GGA compatible to vasp.4.4-vasp.4.6
   LMAXPAW     = -100 max onsite density
   LMAXMIX     =    2 max onsite mixed and CHGCAR
   VOSKOWN=      0    Vosko Wilk Nusair interpolation
   ROPT   =    0.00000
 Ionic relaxation
   EDIFFG = 0.1E-02   stopping-criterion for IOM
   NSW    =   1000    number of steps for IOM
   NBLOCK =      1;   KBLOCK =   1000    inner block; outer block
   IBRION =      2    ionic relax: 0-MD 1-quasi-New 2-CG
   NFREE  =      1    steps in history (QN), initial steepest desc. (CG)
   ISIF   =      2    stress and relaxation
   IWAVPR =     11    prediction:  0-non 1-charg 2-wave 3-comb
   ISYM   =      2    0-nonsym 1-usesym 2-fastsym
   LCORR  =      T    Harris-Foulkes like correction to forces

   POTIM  = 0.1000    time-step for ionic-motion
   TEIN   =    0.0    initial temperature
   TEBEG  =    0.0;   TEEND  =   0.0 temperature during run
   SMASS  =  -3.00    Nose mass-parameter (am)
   estimated Nose-frequenzy (Omega)   =  0.10E-29 period in steps =****** mass=  -0.126E-25a.u.
   SCALEE = 1.0000    scale energy and forces
   NPACO  =    256;   APACO  = 16.0  distance and # of slots for P.C.
   PSTRESS=    0.0 pullay stress

  Mass of Ions in am
   POMASS = 107.87
  Ionic Valenz
   ZVAL   =  11.00
  Atomic Wigner-Seitz radii
  virtual crystal weights
   VCA    =   1.00
   NELECT =     583.0000    total number of electrons
   NUPDOWN=      -1.0000    fix difference up-down

 DOS related values:
   EMIN   =  10.00;   EMAX   =-10.00  energy-range for DOS
   EFERMI =   0.00
   ISMEAR =     0;   SIGMA  =   0.00  broadening in eV -4-tet -1-fermi 0-gaus

[...]

 E-fermi :  -3.2745     XC(G=0):  -1.3729     alpha+bet : -0.9388

[...]

 spin component 2

 k-point     1 :       0.0000    0.0000    0.0000
  band No.  band energies     occupation
      1      -9.7397      1.00000
      2      -9.2313      1.00000
      3      -9.1507      1.00000
      4      -9.0898      1.00000
      5      -9.0566      1.00000
      6      -8.9920      1.00000
      7      -8.9686      1.00000
      8      -8.9302      1.00000
      9      -8.9207      1.00000
     10      -8.9148      1.00000
     11      -8.8705      1.00000
     12      -8.8533      1.00000
     13      -8.8395      1.00000
     14      -8.7975      1.00000
     15      -8.7885      1.00000
     16      -8.7760      1.00000
     17      -8.7579      1.00000
     18      -8.7444      1.00000
     19      -8.7260      1.00000
     20      -8.7142      1.00000
     21      -8.6718      1.00000
     22      -8.6272      1.00000
     23      -8.6112      1.00000
     24      -8.5989      1.00000
     25      -8.5935      1.00000
     26      -8.5805      1.00000
     27      -8.5687      1.00000
     28      -8.5585      1.00000
     29      -8.5404      1.00000
     30      -8.5337      1.00000
     31      -8.5296      1.00000
     32      -8.5028      1.00000
     33      -8.4980      1.00000
     34      -8.4949      1.00000
     35      -8.4831      1.00000
     36      -8.4760      1.00000
     37      -8.4466      1.00000
     38      -8.4367      1.00000
     39      -8.4237      1.00000
     40      -8.4068      1.00000
     41      -8.4027      1.00000
     42      -8.3835      1.00000
     43      -8.3744      1.00000
     44      -8.3704      1.00000
     45      -8.3617      1.00000
     46      -8.3399      1.00000
     47      -8.3290      1.00000
     48      -8.3196      1.00000
     49      -8.3127      1.00000
     50      -8.3053      1.00000
     51      -8.2889      1.00000
     52      -8.2745      1.00000
     53      -8.2504      1.00000
     54      -8.2414      1.00000
     55      -8.2242      1.00000
     56      -8.2211      1.00000
     57      -8.2034      1.00000
     58      -8.1901      1.00000
     59      -8.1782      1.00000
     60      -8.1712      1.00000
[...]
    362       1.3145      0.00000
    363       1.3587      0.00000
    364       1.3788      0.00000
    365       1.4058      0.00000
    366       1.4152      0.00000
    367       1.4401      0.00000
    368       1.4509      0.00000
    369       1.4648      0.00000
    370       1.4703      0.00000
    371       1.5018      0.00000
    372       1.5201      0.00000
    373       1.5524      0.00000
    374       1.5726      0.00000
    375       1.5915      0.00000
    376       1.6017      0.00000

[...]

 soft charge-density along one line, spin component           2
         0         1         2         3         4         5         6         7         8         9
 total charge-density along one line

------------------------ aborting loop because EDIFF is reached ----------------------------------------

  FORCE on cell =-STRESS in cart. coord.  units (eV):
  Direction    XX          YY          ZZ          XY          YZ          ZX
  Alpha Z   184.38720   184.38720   184.38720
  Ewald   51910.67758 52826.15871 58442.68943  6128.51759  1670.89678  9839.29402
  Hartree 69629.50319 70435.73616 75957.18829  5784.84055  1694.69778  9390.43975
  E(xc)   -3074.06016 -3073.91449 -3074.09389     0.37806    -0.34375     0.24375
  Local  ************************************-11912.51856 -3371.88116-19232.83400
  n-local  -545.49573  -545.27360  -543.81215     1.12259     1.44336     2.20539
  augment  4870.51722  4870.71492  4871.66942    -0.75424     1.38337     0.04738
  Kinetic  7252.60186  7252.40868  7255.01501    -1.47338     3.95468     0.65035
  Fock        0.00000     0.00000     0.00000     0.00000     0.00000     0.00000
  Total     -19.15145   -19.38053   -19.54509     0.11261     0.15105     0.04664
  in kB      -2.36797    -2.39630    -2.41665     0.01392     0.01868     0.00577

 VOLUME and BASIS-vectors are now :
  energy-cutoff  :      249.84
  volume of cell :    12957.92
      direct lattice vectors                 reciprocal lattice vectors
    23.487946428  0.000000000  0.000000000     0.042575029  0.000000000  0.000000000
     0.000000000 23.487946428  0.000000000     0.000000000  0.042575029  0.000000000
     0.000000000  0.000000000 23.487946428     0.000000000  0.000000000  0.042575029

  length of vectors
    23.487946428 23.487946428 23.487946428     0.042575029  0.042575029  0.042575029

 FORCES acting on ions
    electron-ion (+dipol)            ewald-force                    non-local-force                 convergence-correction
   0.470E+03 0.107E+04 0.135E+04   -.470E+03 -.107E+04 -.135E+04   -.364E+00 -.195E+01 -.184E+01   -.735E-02 -.720E-02 -.197E-01
   0.259E+03 0.172E+04 0.459E+03   -.258E+03 -.171E+04 -.459E+03   -.734E+00 -.422E+01 -.361E+00   -.144E-01 0.114E-01 -.104E-01
   -.702E+03 0.139E+04 0.922E+03   0.699E+03 -.139E+04 -.920E+03   0.324E+01 -.301E+01 -.176E+01   -.206E-02 -.225E-01 -.107E-01
   0.132E+04 0.122E+04 0.432E+03   -.131E+04 -.122E+04 -.431E+03   -.383E+01 -.266E+01 -.616E+00   -.258E-02 0.187E-01 0.464E-02
   0.655E+03 0.152E+03 0.172E+04   -.654E+03 -.152E+03 -.171E+04   -.925E+00 0.154E+00 -.431E+01   0.151E-01 0.507E-02 -.893E-03
   -.572E+03 0.733E+03 0.154E+04   0.571E+03 -.733E+03 -.154E+04   0.966E+00 -.859E+00 -.245E+01   0.791E-03 0.812E-02 -.924E-02
   -.385E+03 -.213E+03 0.177E+04   0.384E+03 0.213E+03 -.177E+04   0.789E+00 -.401E-01 -.461E+01   0.224E-02 0.937E-03 -.125E-01
   0.364E+03 0.908E+03 0.225E+03   -.363E+03 -.906E+03 -.225E+03   -.371E+00 -.202E+01 -.654E+00   -.417E-02 -.802E-02 -.141E-01
   0.686E+03 0.158E+04 -.632E+03   -.685E+03 -.157E+04 0.629E+03   -.177E+01 -.350E+01 0.225E+01   0.514E-02 0.723E-03 -.620E-02
   -.585E+03 0.167E+04 -.177E+03   0.583E+03 -.167E+04 0.177E+03   0.172E+01 -.336E+01 0.620E+00   -.858E-02 -.536E-02 0.724E-03
   0.183E+04 0.127E+03 0.364E+03   -.182E+04 -.126E+03 -.364E+03   -.468E+01 -.560E+00 -.659E-01   0.199E-01 -.241E-01 0.134E-01
   0.129E+04 0.519E+03 0.103E+04   -.129E+04 -.518E+03 -.103E+04   -.588E+00 -.380E+00 -.110E+00   0.231E-01 -.465E-02 -.183E-01
   0.371E+03 -.867E+03 0.149E+04   -.371E+03 0.867E+03 -.149E+04   0.448E-01 0.663E+00 -.147E+01   0.375E-02 0.216E-02 -.364E-02
   0.146E+04 0.899E+03 -.541E+03   -.146E+04 -.897E+03 0.539E+03   -.225E+01 -.201E+01 0.131E+01   0.208E-01 -.372E-03 0.204E-01
   -.931E+03 0.975E+03 0.629E+03   0.930E+03 -.973E+03 -.629E+03   0.435E+00 -.132E+01 -.338E+00   0.458E-01 0.585E-01 0.311E-01
   -.117E+04 0.185E+03 0.125E+04   0.117E+04 -.185E+03 -.125E+04   0.137E+01 -.123E+00 -.182E+01   0.203E-01 -.141E-01 0.428E-01
   0.900E+02 0.113E+03 0.893E+03   -.899E+02 -.113E+03 -.891E+03   -.772E-01 0.209E+00 -.195E+01   0.647E-02 0.153E-01 -.244E-02
   0.130E+04 -.445E+03 0.116E+04   -.130E+04 0.445E+03 -.116E+04   -.114E+01 0.685E+00 -.828E+00   0.799E-02 -.401E-02 0.361E-02
   -.726E+03 -.931E+03 0.141E+04   0.725E+03 0.929E+03 -.141E+04   0.130E+01 0.196E+01 -.204E+01   0.220E-02 0.547E-02 -.718E-02
   0.172E+04 -.121E+03 -.780E+03   -.172E+04 0.121E+03 0.778E+03   -.448E+01 0.463E+00 0.217E+01   0.148E-01 0.309E-02 0.774E-02
   0.112E+04 0.356E+03 -.108E+04   -.112E+04 -.356E+03 0.108E+04   -.547E-01 -.288E+00 0.274E+00   -.460E-01 0.187E-01 0.201E-01
   0.285E+03 0.124E+04 -.796E+03   -.285E+03 -.124E+04 0.796E+03   -.437E-01 -.875E-02 -.399E+00   -.234E-01 -.106E-02 -.159E-01
   -.104E+03 0.275E+03 -.649E+02   0.104E+03 -.276E+03 0.650E+02   0.822E-01 0.329E+00 -.704E-01   0.254E-01 0.596E-02 -.714E-03
   -.842E+03 0.122E+04 -.258E+03   0.842E+03 -.122E+04 0.257E+03   0.519E+00 0.265E+00 0.486E+00   -.174E-01 -.813E-02 0.451E-03
   0.161E+04 -.935E+03 0.569E+02   -.160E+04 0.933E+03 -.573E+02   -.263E+01 0.172E+01 0.351E+00   -.343E-03 -.142E-01 0.770E-02
   0.928E+03 0.896E+02 -.437E+01   -.926E+03 -.900E+02 0.448E+01   -.144E+01 0.371E+00 -.155E+00   0.174E-01 -.681E-02 0.314E-01
   0.104E+04 -.139E+04 0.840E+03   -.104E+04 0.138E+04 -.839E+03   -.251E+01 0.430E+01 -.138E+01   -.573E-02 0.188E-02 -.581E-02
   0.757E+03 0.877E+03 -.148E+04   -.753E+03 -.875E+03 0.147E+04   -.340E+01 -.249E+01 0.395E+01   -.909E-03 -.161E-01 0.207E-01
   0.478E+03 -.727E+03 0.321E+03   -.477E+03 0.726E+03 -.320E+03   -.108E+01 0.102E+01 -.750E+00   0.139E-01 -.880E-03 0.663E-02
   -.136E+04 0.462E+03 0.580E+03   0.136E+04 -.462E+03 -.580E+03   0.761E+00 -.270E+00 -.100E+00   -.739E-01 -.160E-01 -.722E-01
   -.158E+04 0.879E+03 0.116E+03   0.157E+04 -.877E+03 -.115E+03   0.333E+01 -.257E+01 -.139E+01   0.210E-02 -.117E-01 0.114E-01
   -.319E+03 0.129E+04 -.125E+04   0.320E+03 -.128E+04 0.125E+04   -.852E+00 -.225E+01 0.239E+01   -.558E-02 0.780E-02 0.300E-02
   -.111E+04 0.112E+04 -.888E+03   0.111E+04 -.112E+04 0.887E+03   0.299E+01 -.283E+01 0.140E+01   -.446E-02 -.305E-02 0.114E-01
   0.119E+04 -.817E+03 -.824E+03   -.119E+04 0.816E+03 0.824E+03   -.179E+00 0.839E+00 -.262E+00   -.349E-02 -.176E-01 0.229E-02
   0.409E+02 0.239E+03 -.973E+03   -.410E+02 -.239E+03 0.971E+03   0.154E+00 -.259E+00 0.167E+01   0.207E-02 0.203E-01 0.105E-01
   -.157E+04 -.542E+03 0.877E+03   0.157E+04 0.541E+03 -.875E+03   0.348E+01 0.124E+01 -.243E+01   0.135E-02 0.126E-01 -.113E-01
   -.551E+03 -.573E+03 0.444E+03   0.549E+03 0.572E+03 -.444E+03   0.132E+01 0.679E+00 -.226E+00   -.118E-01 0.118E-02 -.486E-02
   -.847E+03 -.632E+02 -.445E+03   0.845E+03 0.631E+02 0.445E+03   0.169E+01 0.660E-01 0.330E+00   -.146E-01 -.188E-01 0.298E-01
   0.875E+03 -.164E+04 -.188E+03   -.872E+03 0.164E+04 0.188E+03   -.263E+01 0.279E+01 -.420E+00   -.188E-01 0.530E-02 -.380E-02
   -.911E+03 -.154E+04 0.638E+03   0.908E+03 0.153E+04 -.636E+03   0.241E+01 0.347E+01 -.229E+01   -.863E-03 0.423E-02 -.564E-02
   0.709E+02 -.161E+04 0.829E+03   -.707E+02 0.161E+04 -.828E+03   -.153E+00 0.321E+01 -.938E+00   -.106E-01 0.270E-03 -.231E-01
   0.912E+03 -.529E+03 -.152E+04   -.910E+03 0.529E+03 0.151E+04   -.170E+01 0.139E+00 0.339E+01   0.750E-02 0.772E-02 0.122E-01
   -.178E+04 -.363E+03 0.903E+02   0.177E+04 0.363E+03 -.901E+02   0.423E+01 0.270E+00 -.230E+00   0.130E-01 0.776E-02 0.110E-01
   0.300E+02 -.709E+03 -.503E+03   -.301E+02 0.707E+03 0.502E+03   0.218E-01 0.158E+01 0.798E+00   0.244E-01 -.166E-01 -.789E-02
   0.978E+02 0.811E+02 -.183E+04   -.969E+02 -.804E+02 0.182E+04   -.914E+00 -.710E+00 0.508E+01   0.734E-02 -.225E-02 -.757E-02
   -.834E+03 0.151E+03 -.154E+04   0.833E+03 -.151E+03 0.154E+04   0.743E+00 -.167E+00 0.217E+01   -.100E-01 0.133E-01 0.104E-01
   -.160E+04 0.703E+02 -.854E+03   0.160E+04 -.699E+02 0.852E+03   0.441E+01 -.420E+00 0.126E+01   0.636E-02 0.838E-02 0.875E-02
   -.166E+03 -.175E+04 -.122E+03   0.166E+03 0.174E+04 0.123E+03   -.351E+00 0.124E+01 -.504E+00   -.290E-02 -.653E-02 -.777E-02
   -.120E+04 -.120E+04 -.142E+03   0.120E+04 0.120E+04 0.142E+03   0.128E+00 0.293E+00 0.201E+00   -.117E-01 0.941E-02 -.174E-01
   0.573E+03 -.145E+04 -.108E+04   -.571E+03 0.144E+04 0.107E+04   -.192E+01 0.266E+01 0.310E+01   -.530E-02 0.447E-02 -.819E-03
   -.224E+03 -.820E+03 -.152E+04   0.224E+03 0.819E+03 0.151E+04   -.136E+00 0.794E+00 0.924E+00   0.497E-02 -.201E-01 0.111E-01
   -.122E+04 -.864E+03 -.106E+04   0.122E+04 0.862E+03 0.105E+04   0.243E+01 0.164E+01 0.207E+01   0.704E-02 -.310E-02 -.984E-02
   -.538E+03 -.152E+04 -.921E+03   0.537E+03 0.152E+04 0.920E+03   0.103E+01 0.402E+01 0.175E+01   -.493E-02 0.499E-02 -.232E-01
   0.156E+01 0.118E+01 -.118E+01   -.318E-11 0.182E-11 -.819E-11   -.160E+01 -.121E+01 0.117E+01   0.937E-02 0.107E-01 -.808E-04

 POSITION                                       TOTAL-FORCE (eV/Angst)
     10.24830      8.44936      8.03976        -0.000337      0.005063      0.014211
     10.49937      6.39261      9.99763         0.008122     -0.004515      0.007609
     12.74328      7.32019      8.74521         0.002468     -0.001134     -0.000539
      8.10648      7.77353     10.19141         0.004523     -0.010557     -0.002147
     10.00830     11.24224      6.94988        -0.007545     -0.002382      0.003033
     12.57518      9.81918      7.39479         0.000008     -0.002026     -0.000224
     12.53201     12.48166      6.45903        -0.005377     -0.000205      0.001275
     10.49607      9.16888     10.90283        -0.002974     -0.000031      0.010962
      9.61852      7.05571     12.59625        -0.002216      0.002566      0.004840
     12.48957      7.36991     11.78949         0.005655      0.001013      0.001951
      6.58710     11.43085     10.60316        -0.014030      0.017536     -0.007014
      8.37343     10.19125      8.96214        -0.010558     -0.001346      0.008843
     10.78661     14.05799      7.87406        -0.001835     -0.000001      0.002862
      7.94970      9.40311     12.48930        -0.011247      0.001555     -0.012405
     13.34391      9.57124     10.17988        -0.001938      0.002348      0.000040
     14.16770     11.86167      8.60718        -0.001413     -0.000424      0.005253
     11.30269     11.52915      9.35806        -0.003598     -0.006909      0.000023
      8.40364     12.91903      8.79563        -0.005323      0.002301     -0.003194
     13.62330     14.55302      8.11122        -0.002024      0.000313      0.004038
      6.99293     12.09360     13.28935         0.000176     -0.001773     -0.003230
      9.33532     11.11257     14.36191         0.010110     -0.003107     -0.020172
     11.19267      9.02742     13.75556         0.012560     -0.007094      0.002531
     12.10029     11.36260     12.04075        -0.007736     -0.001298     -0.000608
     14.01879      9.42405     13.07553         0.007041      0.005610     -0.004787
      7.65381     14.04941     11.28213        -0.001939      0.007051     -0.001743
      9.23385     11.60382     11.53872        -0.012490      0.001285     -0.012891
      8.95685     15.63767      9.36407         0.003221      0.002376      0.000683
     10.52638      9.80048     16.46571        -0.000052      0.006738     -0.006462
     10.55636     13.84756     10.85133        -0.000699     -0.002008     -0.003611
     15.19728     11.38862     11.08506         0.001796     -0.004365     -0.007502
     16.84755     10.12832     12.84092         0.009813     -0.002220     -0.001838
     13.18412      9.09238     15.90995         0.003352     -0.004628     -0.002711
     15.80502      9.34046     15.28549         0.003412     -0.000663     -0.005212
      9.18360     13.87072     13.63890        -0.003952      0.003308     -0.003613
     12.16392     11.46466     14.89470         0.008723     -0.001190     -0.003589
     15.94372     13.88477     10.00523        -0.000538     -0.005312      0.001503
     13.33483     13.66951     10.80929         0.002433     -0.005662      0.004936
     14.51970     12.31492     13.63260        -0.003256      0.014573     -0.007304
      9.88041     16.17633     12.15955         0.010975     -0.000108      0.001345
     14.48088     16.30413     10.25201         0.003677     -0.004714      0.005293
     11.75602     16.04443      9.71101         0.004138     -0.000784      0.010156
     10.33135     13.24386     16.05941        -0.002099     -0.006463     -0.006727
     17.00277     13.05646     12.53258         0.005166     -0.000556     -0.001916
     12.08044     13.85016     13.36497        -0.009830      0.000071     -0.001881
     12.19689     11.71404     17.68019        -0.001254      0.004094     -0.001244
     14.69002     11.65905     16.47326        -0.001259     -0.003426     -0.005804
     17.07316     11.82671     15.05382        -0.001558     -0.000425     -0.002654
     12.64748     16.50506     12.39129         0.006837      0.004190      0.008291
     15.22352     15.17094     12.65620         0.002275     -0.001450      0.008958
     11.02484     15.87078     14.81729         0.002661      0.001186      0.005054
     13.04190     13.98684     16.17136        -0.003742      0.001872     -0.002201
     15.73031     14.23419     15.28745        -0.001662     -0.000926      0.009407
     13.85017     16.27939     14.85718         0.003343      0.002651      0.010127
    total drift:                               -0.029694     -0.026601     -0.006633

  FREE ENERGIE OF THE ION-ELECTRON SYSTEM (eV)
  free  energy   TOTEN  =      -116.34141625 eV

  energy  without entropy=     -116.34141625  energy(sigma->0) =     -116.34141625

 d Force = 0.2697403E-03[-0.310E-03, 0.850E-03]  d Energy = 0.2051218E-03 0.646E-04
 d Force = 0.1883797E+01[ 0.187E+01, 0.190E+01]  d Ewald  = 0.1883803E+01-0.531E-05

 reached required accuracy - stopping structural energy minimisation