 vasp.5.3.5 31Mar14 (build Feb 01 2018 12:10:03) gamma-only

 executed on             LinuxIFC date 2019.03.25  11:20:55

 INCAR:
 POTCAR:    PAW_PBE Ag 02Apr2005
 POTCAR:    PAW_PBE Ag 02Apr2005
   VRHFIN =Ag : s1 d10

   TITEL  = PAW_PBE Ag 02Apr2005
   POMASS =  107.868; ZVAL   =   11.000    mass and valenz
   ENMAX  =  249.844; ENMIN  =  187.383 eV

  PAW_PBE Ag 02Apr2005                  :

 POSCAR: Al54, -172.75371353 <s> Ag </s>
  positions in direct lattice
 exchange correlation table for  LEXCH =        8
   RHO(1)=    0.500       N(1)  =     2000
   RHO(2)=  100.500       N(2)  =     4000

 ion  position               nearest neighbor table
   1  0.541  0.452  0.702-   2 2.70   8 2.75   4 2.81  12 2.82   5 2.83   7 2.83   6 2.86  18 3.04

   2  0.434  0.489  0.732-   1 2.70  11 2.75  27 2.79   8 2.94   6 3.02  18 3.32
   3  0.693  0.313  0.662-  13 2.75   5 2.78   4 2.86  10 2.94
   4  0.572  0.339  0.666-  14 2.73   1 2.81  10 2.85   3 2.86   6 2.90   5 2.93  12 2.95
   5  0.661  0.425  0.693-   7 2.73   3 2.78   1 2.83  12 2.84   4 2.93  13 2.97  15 3.54
   6  0.450  0.371  0.677-  18 2.76  16 2.79  11 2.82   1 2.86   4 2.90  14 2.93   2 3.02
   7  0.625  0.536  0.670-   5 2.73   8 2.77  15 2.77  17 2.78   9 2.78   1 2.83  12 2.93  23 3.41

   8  0.507  0.554  0.649-  18 2.72  19 2.74   1 2.75   7 2.77  32 2.81  17 2.86  27 2.92   2 2.94
                            23 3.10  12 3.51
   9  0.708  0.622  0.651-  25 2.74   7 2.78  17 2.84  15 3.05
  10  0.626  0.327  0.555-  20 2.75  14 2.82  13 2.84  12 2.84   4 2.85   3 2.94  24 2.95  21 3.30

  11  0.349  0.439  0.664-  26 2.74   2 2.75   6 2.82  16 2.87  27 2.94  18 3.13
  12  0.593  0.441  0.591-  21 2.72  23 2.73   1 2.82   5 2.84  10 2.84  15 2.91   7 2.93   4 2.95
                            18 2.98  24 3.06  13 3.16  14 3.31   8 3.51
  13  0.723  0.398  0.583-  24 2.71   3 2.75  15 2.82  10 2.84   5 2.97  12 3.16
  14  0.504  0.330  0.568-   4 2.73  16 2.75  20 2.82  10 2.82  21 2.84  22 2.90   6 2.93  18 3.11
                            12 3.31
  15  0.693  0.516  0.573-  31 2.76   7 2.77  13 2.82  25 2.83  12 2.91  24 3.01  23 3.02   9 3.05
                             5 3.54
  16  0.389  0.365  0.572-  28 2.72  14 2.75  18 2.79   6 2.79  26 2.86  11 2.87  22 2.99  33 3.47

  17  0.588  0.648  0.641-  37 2.76   7 2.78  19 2.82   9 2.84   8 2.86  25 2.87  23 3.54
  18  0.464  0.457  0.594-  32 2.70   8 2.72   6 2.76  16 2.79  12 2.98  26 3.00   1 3.04  21 3.05
                            33 3.06  14 3.11  11 3.13   2 3.32  27 3.36  23 3.45
  19  0.466  0.664  0.632-   8 2.74  29 2.77  41 2.81  17 2.82  37 2.86  27 3.10  32 3.12
  20  0.556  0.297  0.462-  30 2.71  22 2.74  10 2.75  14 2.82  21 2.91
  21  0.536  0.419  0.489-  35 2.69  12 2.72  33 2.76  22 2.78  14 2.84  20 2.91  38 2.95  30 2.99
                            24 3.05  18 3.05  23 3.07  10 3.30
  22  0.447  0.344  0.457-  20 2.74  21 2.78  33 2.85  28 2.86  14 2.90  43 2.92  16 2.99  38 3.00

  23  0.571  0.542  0.531-  12 2.73  42 2.80  37 2.83  35 2.85  25 2.94  32 2.99  15 3.02  21 3.07
                             8 3.10  31 3.21  39 3.21   7 3.41  18 3.45  17 3.54
  24  0.669  0.425  0.482-  13 2.71  30 2.82  34 2.84  31 2.88  35 2.92  10 2.95  15 3.01  21 3.05
                            12 3.06
  25  0.662  0.632  0.542-  39 2.72   9 2.74  15 2.83  31 2.86  17 2.87  37 2.88  23 2.94
  26  0.342  0.479  0.552-  36 2.68  11 2.74  33 2.80  16 2.86  28 2.97  40 3.00  18 3.00  32 3.02
                            27 3.12
  27  0.380  0.563  0.652-   2 2.79  36 2.83  32 2.86   8 2.92  11 2.94  29 2.97  19 3.10  26 3.12
                            18 3.36
  28  0.328  0.379  0.471-  16 2.72  40 2.75  43 2.78  22 2.86  26 2.97  33 3.05
  29  0.348  0.684  0.622-  36 2.74  19 2.77  41 2.91  27 2.97  45 3.02
  30  0.606  0.374  0.389-  20 2.71  44 2.80  24 2.82  38 2.85  35 2.91  34 2.94  21 2.99
  31  0.689  0.546  0.456-  15 2.76  35 2.77  39 2.82  34 2.84  25 2.86  24 2.88  46 2.96  23 3.21

  32  0.443  0.562  0.545-  18 2.70  42 2.71  41 2.76   8 2.81  27 2.86  33 2.86  47 2.96  36 2.99
                            23 2.99  26 3.02  19 3.12  37 3.19
  33  0.428  0.466  0.467-  21 2.76  26 2.80  48 2.81  22 2.85  32 2.86  38 2.91  40 2.93  42 3.02
                            28 3.05  18 3.06  43 3.08  47 3.23  16 3.47
  34  0.700  0.459  0.368-  44 2.81  24 2.84  31 2.84  46 2.89  30 2.94  35 2.96
  35  0.586  0.496  0.417-  21 2.69  31 2.77  42 2.80  46 2.80  49 2.81  23 2.85  38 2.86  30 2.91
                            24 2.92  44 2.95  34 2.96  39 3.30
  36  0.317  0.593  0.551-  26 2.68  29 2.74  45 2.76  47 2.79  27 2.83  32 2.99  41 3.18
  37  0.540  0.661  0.532-  50 2.69  41 2.76  17 2.76  39 2.77  23 2.83  19 2.86  25 2.88  42 3.04
                            32 3.19
  38  0.496  0.426  0.367-  43 2.76  49 2.85  30 2.85  35 2.86  48 2.88  33 2.91  21 2.95  44 2.98
                            22 3.00
  39  0.609  0.637  0.436-  25 2.72  37 2.77  50 2.80  31 2.82  53 2.84  46 2.87  42 2.94  23 3.21
                            35 3.30
  40  0.308  0.489  0.427-  28 2.75  47 2.83  48 2.83  33 2.93  26 3.00  43 3.04
  41  0.422  0.678  0.519-  37 2.76  32 2.76  45 2.77  19 2.81  47 2.85  51 2.87  29 2.91  50 2.96
                            36 3.18  42 3.43
  42  0.497  0.575  0.440-  32 2.71  35 2.80  23 2.80  52 2.89  49 2.90  47 2.90  39 2.94  50 2.99
                            33 3.02  37 3.04  48 3.18  41 3.43  53 3.56
  43  0.379  0.397  0.363-  48 2.76  38 2.76  28 2.78  22 2.92  40 3.04  33 3.08
  44  0.601  0.453  0.296-  49 2.75  30 2.80  34 2.81  35 2.95  46 2.98  38 2.98
  45  0.305  0.700  0.498-  36 2.76  41 2.77  51 2.84  29 3.02  47 3.17
  46  0.644  0.568  0.337-  35 2.80  53 2.83  39 2.87  34 2.89  49 2.93  31 2.96  44 2.98
  47  0.372  0.593  0.442-  36 2.79  48 2.81  40 2.83  41 2.85  52 2.88  42 2.90  32 2.96  51 3.01
                            45 3.17  33 3.23
  48  0.406  0.514  0.356-  52 2.74  43 2.76  33 2.81  47 2.81  49 2.81  40 2.83  38 2.88  42 3.18

[...]

  53  0.560  0.657  0.324-  46 2.83  39 2.84  49 2.86  50 2.86  54 2.87  52 2.89  42 3.56
  54  0.468  0.742  0.320-  52 2.76  50 2.78  51 2.80  53 2.87

  LATTYP: Found a simple cubic cell.
 ALAT       =    22.9567007462

  Lattice vectors:

 A1 = (  22.9567007462,   0.0000000000,   0.0000000000)
 A2 = (   0.0000000000,  22.9567007462,   0.0000000000)
 A3 = (   0.0000000000,   0.0000000000,  22.9567007462)

Analysis of symmetry for initial positions (statically):
 Subroutine PRICEL returns:
 Original cell was already a primitive cell.

 Routine SETGRP: Setting up the symmetry group for a
 simple cubic supercell.

 Subroutine GETGRP returns: Found  1 space group operations
 (whereof  1 operations were pure point group operations)
 out of a pool of 48 trial point group operations.

The static configuration has the point symmetry C_1 .

Analysis of symmetry for dynamics (positions and initial velocities):
 Subroutine PRICEL returns:
 Original cell was already a primitive cell.

 Routine SETGRP: Setting up the symmetry group for a
 simple cubic supercell.

 Subroutine GETGRP returns: Found  1 space group operations
 (whereof  1 operations were pure point group operations)
 out of a pool of 48 trial point group operations.

The dynamic configuration has the point symmetry C_1 .

Analysis of magnetic symmetry:
 Subroutine PRICEL returns:
 Original cell was already a primitive cell.

 Subroutine MAGSYM returns: Found  1 space group operations
 (whereof  1 operations were pure point group operations)
 out of a pool of  1 trial space group operations
 (whereof  1 operations were pure point group operations)
 and found also     1 'primitive' translations

The magnetic configuration has the point symmetry C_1 .

 KPOINTS: Gamma-point only
  k-points in reciprocal lattice
Space group operators:
 irot       det(A)        alpha          n_x          n_y          n_z        tau_x        tau_y        tau_z
    1     1.000000     0.000000     1.000000     0.000000     0.000000     0.000000     0.000000     0.000000

 I would recommend the setting:
   dimension x,y,z NGX =    89 NGY =   89 NGZ =   89
 SYSTEM =  unknown system
 POSCAR =  Al54, -172.75371353 <s> Ag </s>

 Startparameter for this run:
   NWRITE =      2    write-flag & timer
   PREC   = normal    normal or accurate (medium, high low for compatibility)
   ISTART =      0    job   : 0-new  1-cont  2-samecut
   ICHARG =      2    charge: 1-file 2-atom 10-const
   ISPIN  =      2    spin polarized calculation?
   LNONCOLLINEAR =      F non collinear calculations
   LSORBIT =      F    spin-orbit coupling
   INIWAV =      1    electr: 0-lowe 1-rand  2-diag
   LASPH  =      F    aspherical Exc in radial PAW
   METAGGA=      F    non-selfconsistent MetaGGA calc.

 Electronic Relaxation 1
   ENCUT  =  249.8 eV  18.36 Ry    4.29 a.u.  29.59 29.59 29.59*2*pi/ulx,y,z
   ENINI  =  249.8     initial cutoff
   ENAUG  =  412.5 eV  augmentation charge cutoff
   NELM   =     60;   NELMIN=  2; NELMDL= -5     # of ELM steps
   EDIFF  = 0.1E-03   stopping-criterion for ELM
   LREAL  =      F    real-space projection
   NLSPLINE    = F    spline interpolate recip. space projectors
   LCOMPAT=      F    compatible to vasp.4.4
   GGA_COMPAT  = T    GGA compatible to vasp.4.4-vasp.4.6
   LMAXPAW     = -100 max onsite density
   LMAXMIX     =    2 max onsite mixed and CHGCAR
   VOSKOWN=      0    Vosko Wilk Nusair interpolation
   ROPT   =    0.00000
 Ionic relaxation
   EDIFFG = 0.1E-02   stopping-criterion for IOM
   NSW    =   1000    number of steps for IOM
   NBLOCK =      1;   KBLOCK =   1000    inner block; outer block
   IBRION =      2    ionic relax: 0-MD 1-quasi-New 2-CG
   NFREE  =      1    steps in history (QN), initial steepest desc. (CG)
   ISIF   =      2    stress and relaxation
   IWAVPR =     11    prediction:  0-non 1-charg 2-wave 3-comb
   ISYM   =      2    0-nonsym 1-usesym 2-fastsym
   LCORR  =      T    Harris-Foulkes like correction to forces

   POTIM  = 0.1000    time-step for ionic-motion
   TEIN   =    0.0    initial temperature
   TEBEG  =    0.0;   TEEND  =   0.0 temperature during run
   SMASS  =  -3.00    Nose mass-parameter (am)
   estimated Nose-frequenzy (Omega)   =  0.10E-29 period in steps =****** mass=  -0.120E-25a.u.
   SCALEE = 1.0000    scale energy and forces
   NPACO  =    256;   APACO  = 16.0  distance and # of slots for P.C.
   PSTRESS=    0.0 pullay stress

  Mass of Ions in am
   POMASS = 107.87
  Ionic Valenz
   ZVAL   =  11.00
  Atomic Wigner-Seitz radii
  virtual crystal weights
   VCA    =   1.00
   NELECT =     594.0000    total number of electrons
   NUPDOWN=      -1.0000    fix difference up-down

 DOS related values:
   EMIN   =  10.00;   EMAX   =-10.00  energy-range for DOS
   EFERMI =   0.00
   ISMEAR =     0;   SIGMA  =   0.00  broadening in eV -4-tet -1-fermi 0-gaus

 Electronic relaxation 2 (details)
   IALGO  =     38    algorithm
   LDIAG  =      T    sub-space diagonalisation (order eigenvalues)
   LSUBROT=      F    optimize rotation matrix (better conditioning)
   TURBO    =      0    0=normal 1=particle mesh
   IRESTART =      0    0=no restart 2=restart with 2 vectors
[...]
      2      -9.0857      1.00000
      3      -9.0366      1.00000
      4      -8.9383      1.00000
      5      -8.9292      1.00000
      6      -8.8708      1.00000
      7      -8.8493      1.00000
      8      -8.8311      1.00000
      9      -8.8207      1.00000
     10      -8.8070      1.00000
     11      -8.7797      1.00000
     12      -8.7553      1.00000
     13      -8.7378      1.00000
     14      -8.7333      1.00000
     15      -8.7105      1.00000
     16      -8.6870      1.00000
     17      -8.6635      1.00000
     18      -8.6558      1.00000
     19      -8.6428      1.00000
     20      -8.6138      1.00000
     21      -8.5899      1.00000
     22      -8.5856      1.00000
     23      -8.5686      1.00000
     24      -8.5599      1.00000
     25      -8.5571      1.00000
     26      -8.5339      1.00000
     27      -8.5334      1.00000
     28      -8.5244      1.00000
     29      -8.4999      1.00000
     30      -8.4939      1.00000
     31      -8.4654      1.00000
     32      -8.4600      1.00000
     33      -8.4414      1.00000
     34      -8.4281      1.00000
     35      -8.4122      1.00000
     36      -8.4086      1.00000
     37      -8.3989      1.00000
     38      -8.3962      1.00000
     39      -8.3783      1.00000
     40      -8.3677      1.00000
     41      -8.3537      1.00000
     42      -8.3440      1.00000
     43      -8.3339      1.00000
     44      -8.3153      1.00000
     45      -8.3101      1.00000
     46      -8.2957      1.00000
     47      -8.2752      1.00000
     48      -8.2534      1.00000
     49      -8.2384      1.00000
     50      -8.2297      1.00000
     51      -8.2238      1.00000
     52      -8.2095      1.00000
     53      -8.1786      1.00000
     54      -8.1707      1.00000
     55      -8.1592      1.00000
     56      -8.1496      1.00000
     57      -8.1302      1.00000
     58      -8.1217      1.00000
     59      -8.1090      1.00000
     60      -8.0959      1.00000
[...]
    370       1.4580      0.00000
    371       1.4831      0.00000
    372       1.5050      0.00000
    373       1.5115      0.00000
    374       1.5322      0.00000
    375       1.5533      0.00000
    376       1.5724      0.00000
    377       1.5775      0.00000
    378       1.6054      0.00000
    379       1.6249      0.00000
    380       1.6571      0.00000
    381       1.6786      0.00000
    382       1.7170      0.00000
    383       1.7555      0.00000
    384       1.7884      0.00000

[...]

 soft charge-density along one line, spin component           2
         0         1         2         3         4         5         6         7         8         9
 total charge-density along one line

------------------------ aborting loop because EDIFF is reached ----------------------------------------

  FORCE on cell =-STRESS in cart. coord.  units (eV):
  Direction    XX          YY          ZZ          XY          YZ          ZX
  Alpha Z   205.00917   205.00917   205.00917
  Ewald   56543.62358 51805.95555 49732.40436 -6675.96702-11206.71728  1569.54640
  Hartree 74354.11622 69829.71685 67798.68041 -6104.81491-10479.01838  1509.06894
  E(xc)   -3131.82086 -3132.03160 -3131.99984    -1.24125    -1.05107     0.05613
  Local  ************************************ 12767.53914 21679.54948 -3076.24054
  n-local  -550.84914  -552.76879  -553.29417     0.52734    -0.92003    -0.10060
  augment  4962.56395  4962.56924  4961.70392     4.12159     2.36563    -0.73265
  Kinetic  7390.46722  7390.48387  7387.76044    10.21267     6.02185    -1.74391
  Fock        0.00000     0.00000     0.00000     0.00000     0.00000     0.00000
  Total     -18.40307   -18.19625   -18.51855     0.37755     0.23020    -0.14624
  in kB      -2.43710    -2.40971    -2.45239     0.05000     0.03048    -0.01937

 VOLUME and BASIS-vectors are now :
  energy-cutoff  :      249.84
  volume of cell :    12098.41
      direct lattice vectors                 reciprocal lattice vectors
    22.956700746  0.000000000  0.000000000     0.043560266  0.000000000  0.000000000
     0.000000000 22.956700746  0.000000000     0.000000000  0.043560266  0.000000000
     0.000000000  0.000000000 22.956700746     0.000000000  0.000000000  0.043560266

  length of vectors
    22.956700746 22.956700746 22.956700746     0.043560266  0.043560266  0.043560266

 FORCES acting on ions
    electron-ion (+dipol)            ewald-force                    non-local-force                 convergence-correction
   -.147E+03 0.256E+03 -.173E+04   0.147E+03 -.255E+03 0.173E+04   0.279E+00 -.895E-01 0.240E+01   -.141E-01 0.499E-02 -.223E-03
   0.564E+03 -.119E+03 -.171E+04   -.562E+03 0.118E+03 0.171E+04   -.255E+01 0.119E+01 0.342E+01   -.148E-01 0.653E-02 -.251E-02
   -.982E+03 0.128E+04 -.624E+03   0.980E+03 -.127E+04 0.622E+03   0.266E+01 -.519E+01 0.168E+01   -.717E-02 0.576E-03 -.239E-02
   -.222E+03 0.134E+04 -.110E+04   0.222E+03 -.134E+04 0.110E+04   0.315E+00 -.183E+01 0.178E+01   -.699E-02 0.486E-02 0.234E-02
   -.105E+04 0.435E+03 -.140E+04   0.104E+04 -.435E+03 0.140E+04   0.402E+01 -.516E+00 0.267E+01   -.127E-01 -.543E-02 0.112E-01
   0.482E+03 0.115E+04 -.132E+04   -.481E+03 -.115E+04 0.132E+04   -.383E+00 -.151E+01 0.253E+01   -.501E-02 -.409E-02 0.227E-03
   -.826E+03 -.384E+03 -.145E+04   0.826E+03 0.383E+03 0.145E+04   0.107E+00 0.551E+00 0.198E+01   0.369E-02 -.279E-02 0.578E-02
   0.217E+02 -.549E+03 -.129E+04   -.217E+02 0.549E+03 0.129E+04   -.636E-01 0.285E+00 -.240E-01   0.141E-02 0.474E-02 0.529E-02
   -.128E+04 -.851E+03 -.883E+03   0.127E+04 0.848E+03 0.880E+03   0.535E+01 0.281E+01 0.288E+01   -.860E-03 -.509E-02 -.184E-02
   -.841E+03 0.149E+04 0.530E+02   0.839E+03 -.148E+04 -.522E+02   0.189E+01 -.208E+01 -.819E+00   -.749E-02 -.932E-04 -.293E-02
   0.128E+04 0.597E+03 -.119E+04   -.128E+04 -.596E+03 0.119E+04   -.353E+01 -.994E+00 0.301E+01   0.746E-02 0.249E-03 -.113E-01
   -.597E+03 0.384E+03 -.630E+03   0.597E+03 -.383E+03 0.630E+03   0.420E+00 -.108E+01 0.547E+00   -.211E-02 0.231E-02 0.167E-02
   -.165E+04 0.599E+03 -.293E+03   0.164E+04 -.598E+03 0.292E+03   0.343E+01 -.102E+01 0.919E+00   -.281E-02 0.316E-03 0.140E-01
   0.207E+03 0.166E+04 -.362E+03   -.207E+03 -.165E+04 0.362E+03   0.206E+00 -.948E+00 -.539E-01   -.974E-03 -.799E-04 -.156E-02
   -.159E+04 -.228E+03 -.397E+03   0.159E+04 0.228E+03 0.396E+03   0.641E+00 0.463E+00 0.870E+00   -.483E-02 0.356E-02 0.130E-02
   0.104E+04 0.138E+04 -.450E+03   -.104E+04 -.138E+04 0.449E+03   -.141E+01 -.227E+01 0.488E+00   0.240E-02 -.506E-02 -.364E-02
   -.507E+03 -.128E+04 -.114E+04   0.506E+03 0.128E+04 0.114E+04   0.123E+01 0.247E+01 0.121E+01   0.487E-02 -.584E-02 0.382E-02
   0.412E+03 0.391E+03 -.631E+03   -.411E+03 -.390E+03 0.630E+03   -.783E+00 -.106E+01 0.151E+01   0.218E-02 -.294E-02 0.424E-02
   0.224E+03 -.135E+04 -.124E+04   -.222E+03 0.135E+04 0.123E+04   -.170E+01 0.158E+01 0.388E+01   0.308E-02 0.959E-03 -.357E-02
   -.133E+03 0.176E+04 0.653E+03   0.133E+03 -.175E+04 -.651E+03   -.136E+00 -.464E+01 -.201E+01   -.646E-02 0.106E-01 -.667E-02
   -.140E+03 0.776E+03 0.237E+03   0.140E+03 -.775E+03 -.237E+03   0.725E-01 -.624E+00 0.771E-01   -.667E-03 0.368E-02 0.144E-02
   0.637E+03 0.147E+04 0.566E+03   -.636E+03 -.147E+04 -.564E+03   -.657E+00 -.994E+00 -.167E+01   -.713E-02 -.994E-03 -.151E-02
   -.467E+03 -.309E+03 -.194E+03   0.466E+03 0.309E+03 0.194E+03   0.886E+00 -.681E-01 0.315E+00   -.137E-02 0.143E-02 0.802E-02
   -.138E+04 0.587E+03 0.289E+03   0.138E+04 -.587E+03 -.289E+03   -.266E-01 -.352E-01 -.379E+00   0.363E-02 -.407E-02 -.119E-01
   -.123E+04 -.124E+04 -.139E+03   0.123E+04 0.124E+04 0.139E+03   0.651E+00 0.231E+01 0.497E+00   -.104E-02 -.165E-02 0.200E-02
   0.152E+04 0.385E+03 -.381E+03   -.152E+04 -.384E+03 0.380E+03   -.134E+00 -.188E+00 0.744E+00   0.612E-02 -.132E-02 -.309E-02
   0.118E+04 -.380E+03 -.122E+04   -.118E+04 0.379E+03 0.122E+04   0.290E+00 0.885E+00 0.247E+01   -.123E-01 0.704E-02 -.946E-04
   0.145E+04 0.110E+04 0.317E+03   -.145E+04 -.110E+04 -.316E+03   -.382E+01 -.265E+01 -.710E+00   -.487E-02 0.125E-03 0.214E-03
   0.106E+04 -.112E+04 -.992E+03   -.105E+04 0.111E+04 0.989E+03   -.166E+01 0.276E+01 0.303E+01   0.435E-02 0.443E-02 -.319E-03
   -.784E+03 0.132E+04 0.100E+04   0.784E+03 -.132E+04 -.100E+04   0.579E+00 -.183E+01 -.126E+01   0.654E-02 0.186E-02 -.244E-02
   -.168E+04 -.492E+03 0.448E+03   0.168E+04 0.492E+03 -.447E+03   0.323E+01 0.396E+00 -.942E+00   -.328E-02 -.157E-02 0.138E-02
   0.559E+03 -.509E+03 -.444E+03   -.558E+03 0.509E+03 0.444E+03   -.151E+01 0.273E+00 0.188E+00   0.514E-02 -.185E-02 0.385E-02
   0.676E+03 0.312E+03 0.334E+03   -.675E+03 -.312E+03 -.334E+03   -.127E+01 0.190E+00 -.851E+00   0.743E-02 0.276E-02 -.933E-03
   -.152E+04 0.471E+03 0.101E+04   0.152E+04 -.470E+03 -.101E+04   0.436E+01 -.649E+00 -.205E+01   0.333E-02 0.894E-04 -.493E-03
   -.585E+03 0.997E+02 0.787E+03   0.584E+03 -.992E+02 -.786E+03   0.125E+01 -.457E+00 -.129E+01   0.593E-02 -.130E-01 0.186E-01
   0.170E+04 -.376E+03 -.206E+03   -.169E+04 0.376E+03 0.205E+03   -.249E+01 0.296E+00 0.540E+00   0.957E-02 -.632E-03 -.733E-02
   -.404E+03 -.144E+04 -.319E+03   0.405E+03 0.144E+04 0.318E+03   -.529E+00 -.292E-01 0.104E+01   0.385E-02 0.123E-01 -.523E-02
   0.233E+03 0.926E+03 0.135E+04   -.233E+03 -.925E+03 -.135E+04   -.210E+00 -.165E+01 -.126E+01   0.245E-02 -.545E-02 0.497E-02
   -.998E+03 -.117E+04 0.534E+03   0.997E+03 0.117E+04 -.533E+03   0.138E+01 0.678E-01 -.126E+01   -.378E-02 0.598E-02 -.233E-02
   0.166E+04 0.119E+03 0.716E+03   -.166E+04 -.119E+03 -.713E+03   -.299E+01 -.247E+00 -.294E+01   0.664E-02 -.100E-03 0.264E-02
   0.411E+03 -.158E+04 -.277E+03   -.410E+03 0.158E+04 0.277E+03   -.717E+00 0.113E+01 0.169E+00   0.952E-03 -.965E-02 -.826E-02
   0.127E+03 -.481E+03 0.554E+03   -.127E+03 0.481E+03 -.553E+03   -.446E+00 -.158E+00 -.667E+00   0.108E-01 0.139E-03 -.603E-04
   0.100E+04 0.921E+03 0.130E+04   -.999E+03 -.918E+03 -.130E+04   -.137E+01 -.298E+01 -.293E+01   0.785E-04 -.210E-03 0.264E-03
   -.480E+03 0.665E+03 0.169E+04   0.479E+03 -.663E+03 -.168E+04   0.142E+01 -.193E+01 -.411E+01   0.350E-02 -.256E-03 0.142E-02
   0.138E+04 -.113E+04 0.776E+02   -.138E+04 0.113E+04 -.773E+02   -.426E+01 0.353E+01 -.290E+00   0.931E-03 -.552E-02 -.400E-02
   -.116E+04 -.491E+03 0.136E+04   0.115E+04 0.491E+03 -.136E+04   0.270E+01 0.380E-01 -.283E+01   -.180E-02 -.332E-02 0.515E-02
   0.119E+04 -.576E+03 0.680E+03   -.119E+04 0.575E+03 -.680E+03   -.104E+00 0.802E+00 -.655E-01   0.166E-01 0.657E-02 -.401E-03
   0.933E+03 0.930E+02 0.150E+04   -.931E+03 -.921E+02 -.150E+04   -.129E+01 -.891E+00 -.162E+01   -.110E-02 -.909E-03 -.197E-02
   0.198E+02 -.579E+02 0.173E+04   -.197E+02 0.573E+02 -.172E+04   -.592E-02 0.657E+00 -.241E+01   -.217E-02 -.395E-02 0.723E-02
   -.292E+03 -.158E+04 0.352E+03   0.292E+03 0.158E+04 -.351E+03   0.422E+00 0.220E+01 -.131E+01   -.711E-03 0.344E-02 -.642E-02
   0.860E+03 -.137E+04 0.636E+03   -.857E+03 0.137E+04 -.634E+03   -.262E+01 0.242E+01 -.175E+01   -.167E-02 0.162E-01 -.738E-03
   0.654E+03 -.630E+03 0.144E+04   -.653E+03 0.628E+03 -.144E+04   -.106E+01 0.202E+01 -.151E+01   0.861E-03 -.495E-02 0.638E-02
   -.616E+03 -.981E+03 0.133E+04   0.615E+03 0.980E+03 -.133E+04   0.123E+01 0.137E+01 -.218E+01   0.100E-02 -.366E-02 -.486E-02
   0.924E+02 -.129E+04 0.107E+04   -.927E+02 0.128E+04 -.107E+04   0.263E+00 0.530E+01 -.378E+01   -.317E-02 -.434E-02 -.191E-01
   -.160E+01 0.254E+01 0.201E+01   0.308E-11 0.273E-11 -.341E-11   0.156E+01 -.261E+01 -.211E+01   -.660E-02 0.693E-02 -.460E-02

 POSITION                                       TOTAL-FORCE (eV/Angst)
     12.59273     10.31440     16.33544        -0.015388      0.006002     -0.000578
     10.03021     11.19194     16.32317        -0.007192      0.008302     -0.002684
     15.79475      7.03629     14.75466        -0.009985     -0.004256     -0.000289
     13.16949      7.76392     15.22123        -0.008997      0.003486      0.003136
     15.27777      9.52674     16.01938        -0.014641     -0.005922      0.012498
     10.44154      8.43386     15.59149        -0.005008     -0.001443      0.000910
     14.59368     12.26484     15.63810        -0.000118     -0.005930      0.006936
     11.89413     12.67147     14.79381         0.000331     -0.000350      0.008326
     16.37068     14.26156     14.96549         0.005530     -0.002929      0.003011
     14.27503      7.73178     12.44706        -0.004387      0.002754     -0.001582
      7.88883      9.68152     15.42456         0.000526     -0.001112     -0.011850
     13.76784     10.24219     13.77416         0.003549      0.000136      0.002234
     16.61276      9.32638     13.50048        -0.012386      0.013936      0.003950
     11.45830      7.46641     13.07288        -0.001740     -0.000434     -0.003194
     16.11319     12.04613     13.22911        -0.005646     -0.012255     -0.003452
      8.76018      8.12817     13.28131        -0.001777     -0.005743     -0.002939
     13.65050     14.83823     14.80936         0.000534     -0.003012      0.002926
     10.66419     10.42669     13.57333         0.003365     -0.001487      0.005130
     10.89311     15.32251     14.49148         0.005555      0.000490     -0.002789
     12.39707      6.85493     10.49228        -0.007899      0.011698     -0.011265
     12.31895      9.61223     11.34727        -0.002673     -0.001357      0.006204
      9.92365      8.12734     10.72624        -0.005732      0.000159     -0.001790
     13.00116     12.33087     12.10994        -0.002804      0.007667      0.010306
     15.27910     10.16246     11.26711         0.015673     -0.010166      0.024305
     15.22994     14.53366     12.44684        -0.003342      0.002294     -0.004673
      7.54063     10.59839     12.80167         0.008733     -0.000027     -0.001592
      8.10836     12.46365     14.74678        -0.017821      0.005859      0.000958
      7.16512      8.59378     10.95217        -0.005736     -0.001980     -0.000070
      8.15510     15.09099     13.81871         0.002751      0.002947     -0.001956
     14.06823      8.62263      9.23639         0.003326     -0.005482     -0.000961
     16.04630     12.71388     10.41041        -0.003560      0.004141      0.002274
     10.04353     13.18268     12.67914         0.003638     -0.001607      0.004235
      9.80612     10.97051     10.88592         0.008692      0.001667      0.001145
     16.03814     10.52534      8.53687         0.008369      0.001056     -0.003594
     13.51680     11.50224      9.48334        -0.000194      0.001593     -0.005413
      6.89346     13.21875     12.23480         0.010837      0.000407     -0.002623
     12.44346     15.09001     12.22377         0.007120      0.008168      0.002208
     11.35943      9.84053      8.63359         0.003002     -0.007680      0.002827
     13.95257     14.45287      9.94988         0.007456      0.002131     -0.001172
      7.13738     11.35069     10.12235         0.010056      0.000117     -0.000589
      9.87226     16.03611     11.86664        -0.001119     -0.008998     -0.009225
     11.31243     13.27756     10.02633         0.009389     -0.002155      0.003179
      8.48589      9.36700      8.61911        -0.001362      0.000085      0.000650
     13.70772     10.27055      6.94371         0.001313      0.004632      0.002996
      7.10903     15.87066     11.29140         0.001050     -0.001491     -0.003934
     14.86487     13.02148      7.61630        -0.003434     -0.004515      0.007137
      8.52772     13.85362     10.03453         0.016968      0.001709      0.005403
      9.39845     11.92348      8.16511        -0.001103     -0.006451      0.001655
     12.00767     12.45250      7.26304         0.007030     -0.009834      0.010757
     11.72794     16.17831      9.74450        -0.004544      0.009835     -0.017975
      8.99273     16.62918      9.27188         0.005877      0.012905     -0.004677
     10.17969     14.55442      7.71373         0.001818      0.008930      0.003098
     12.97049     15.13038      7.37827        -0.000952     -0.002189     -0.006092
     10.95820     17.14615      7.26505        -0.002945     -0.014302     -0.031433
    total drift:                               -0.050778     -0.063872     -0.109970

  FREE ENERGIE OF THE ION-ELECTRON SYSTEM (eV)
  free  energy   TOTEN  =      -118.22816894 eV

  energy  without entropy=     -118.22816894  energy(sigma->0) =     -118.22816894

 d Force = 0.1268013E-03[ 0.136E-03, 0.118E-03]  d Energy = 0.1696698E-03-0.429E-04
 d Force =-0.1631187E+01[-0.163E+01,-0.163E+01]  d Ewald  =-0.1631186E+01-0.541E-06

 reached required accuracy - stopping structural energy minimisation