 vasp.5.3.5 31Mar14 (build Feb 01 2018 12:10:03) gamma-only

 executed on             LinuxIFC date 2019.03.25  00:35:43

 INCAR:
 POTCAR:    PAW_PBE Ag 02Apr2005
 POTCAR:    PAW_PBE Ag 02Apr2005
   VRHFIN =Ag : s1 d10

   TITEL  = PAW_PBE Ag 02Apr2005
   POMASS =  107.868; ZVAL   =   11.000    mass and valenz
   ENMAX  =  249.844; ENMIN  =  187.383 eV

  PAW_PBE Ag 02Apr2005                  :

 POSCAR: Ti50, -335.94724772 <s> Ag </s>
  positions in direct lattice
 exchange correlation table for  LEXCH =        8
   RHO(1)=    0.500       N(1)  =     2000
   RHO(2)=  100.500       N(2)  =     4000

 ion  position               nearest neighbor table
   1  0.605  0.570  0.312-   2 2.48   9 2.68   6 2.74   8 2.76   5 2.88   3 2.88
   2  0.556  0.478  0.286-   1 2.48  10 2.57   9 2.68   3 2.77   4 2.78   5 2.90
   3  0.663  0.463  0.339-   9 2.70   4 2.73   7 2.75   2 2.77   6 2.85   1 2.88  14 2.96
   4  0.579  0.379  0.352-   7 2.63  12 2.68   3 2.73   2 2.78  13 2.90  10 2.99   9 3.02  17 3.27

   5  0.486  0.561  0.349-   9 2.65  10 2.76   1 2.88   2 2.90   8 3.01  20 3.01  16 3.03  24 3.08
                            11 3.09
   6  0.685  0.569  0.399-   1 2.74  18 2.76  19 2.77   8 2.82  14 2.82   3 2.85  29 2.91   9 3.07

   7  0.675  0.370  0.414-  13 2.57  14 2.58   4 2.63  22 2.63   3 2.75  17 2.84
   8  0.579  0.626  0.414-  20 2.54   1 2.76  18 2.81   6 2.82   9 2.90  29 2.96  25 2.97   5 3.01
                            41 3.23
   9  0.570  0.502  0.399-  17 2.62   5 2.65   2 2.68   1 2.68   3 2.70  24 2.88   8 2.90  20 2.96
                            29 3.00   4 3.02  10 3.04   6 3.07  12 3.55
  10  0.466  0.443  0.342-   2 2.57  24 2.58  12 2.67   5 2.76   4 2.99   9 3.04  15 3.04  11 3.24

  11  0.365  0.525  0.393-  16 2.58  23 2.64  24 2.74  21 2.94  30 2.99   5 3.09  15 3.11  10 3.24

[...]

  34  0.406  0.423  0.544-  37 2.55  47 2.69  43 2.74  24 2.80  46 2.84  27 2.85  35 2.87  30 2.87
                            33 2.88  32 2.95  44 3.04  15 3.07  23 3.08  12 3.52
  35  0.511  0.485  0.563-  38 2.61  40 2.80  32 2.83  39 2.84  34 2.87  46 2.88  20 2.92  24 2.92
                            17 2.92  48 2.98  29 3.26  30 3.31  44 3.34
  36  0.487  0.718  0.583-  45 2.45  25 2.51  41 2.69  49 2.78  31 2.81  39 2.83
  37  0.318  0.358  0.528-  34 2.55  27 2.77  43 2.81  47 2.83  23 2.84  15 2.91  33 3.03
  38  0.599  0.432  0.611-  35 2.61  28 2.71  32 2.79  40 2.81  17 2.92  22 2.98  46 3.20  48 3.42

  39  0.470  0.597  0.596-  49 2.57  45 2.75  50 2.78  36 2.83  35 2.84  20 2.86  48 2.86  30 2.87
                            31 2.93  42 2.93  41 3.00  40 3.08  44 3.13  25 3.52
  40  0.593  0.553  0.622-  48 2.52  26 2.56  29 2.74  35 2.80  38 2.81  41 2.85  49 2.96  39 3.08
                            28 3.11
  41  0.579  0.653  0.551-  36 2.69  18 2.74  29 2.78  26 2.79  25 2.85  40 2.85  39 3.00  20 3.01
                            49 3.06   8 3.23
  42  0.345  0.596  0.618-  44 2.71  45 2.72  30 2.75  31 2.77  50 2.79  39 2.93  33 3.06  21 3.22

  43  0.410  0.315  0.594-  27 2.45  47 2.56  34 2.74  46 2.77  37 2.81  32 2.92
  44  0.398  0.497  0.653-  50 2.66  47 2.66  46 2.67  42 2.71  48 2.78  33 2.92  34 3.04  39 3.13
                            30 3.26  35 3.34
  45  0.413  0.686  0.652-  36 2.45  50 2.48  42 2.72  39 2.75  49 2.82  31 2.83
  46  0.468  0.405  0.649-  44 2.67  32 2.72  43 2.77  47 2.79  34 2.84  35 2.88  48 3.03  38 3.20

[...]

  49  0.528  0.651  0.674-  39 2.57  36 2.78  50 2.80  45 2.82  40 2.96  48 2.98  41 3.06
  50  0.425  0.595  0.708-  45 2.48  48 2.61  44 2.66  39 2.78  42 2.79  49 2.80

  LATTYP: Found a simple cubic cell.
 ALAT       =    23.0578571990

  Lattice vectors:

 A1 = (  23.0578571990,   0.0000000000,   0.0000000000)
 A2 = (   0.0000000000,  23.0578571990,   0.0000000000)
 A3 = (   0.0000000000,   0.0000000000,  23.0578571990)

Analysis of symmetry for initial positions (statically):
 Subroutine PRICEL returns:
 Original cell was already a primitive cell.

 Routine SETGRP: Setting up the symmetry group for a
 simple cubic supercell.

 Subroutine GETGRP returns: Found  1 space group operations
 (whereof  1 operations were pure point group operations)
 out of a pool of 48 trial point group operations.

The static configuration has the point symmetry C_1 .

Analysis of symmetry for dynamics (positions and initial velocities):
 Subroutine PRICEL returns:
 Original cell was already a primitive cell.

 Routine SETGRP: Setting up the symmetry group for a
 simple cubic supercell.

 Subroutine GETGRP returns: Found  1 space group operations
 (whereof  1 operations were pure point group operations)
 out of a pool of 48 trial point group operations.

The dynamic configuration has the point symmetry C_1 .

Analysis of magnetic symmetry:
 Subroutine PRICEL returns:
 Original cell was already a primitive cell.

 Subroutine MAGSYM returns: Found  1 space group operations
 (whereof  1 operations were pure point group operations)
 out of a pool of  1 trial space group operations
 (whereof  1 operations were pure point group operations)
 and found also     1 'primitive' translations

The magnetic configuration has the point symmetry C_1 .

 KPOINTS: Gamma-point only
  k-points in reciprocal lattice
Space group operators:
 irot       det(A)        alpha          n_x          n_y          n_z        tau_x        tau_y        tau_z
    1     1.000000     0.000000     1.000000     0.000000     0.000000     0.000000     0.000000     0.000000

 I would recommend the setting:
   dimension x,y,z NGX =    89 NGY =   89 NGZ =   89
 SYSTEM =  unknown system
 POSCAR =  Ti50, -335.94724772 <s> Ag </s>

 Startparameter for this run:
   NWRITE =      2    write-flag & timer
   PREC   = normal    normal or accurate (medium, high low for compatibility)
   ISTART =      0    job   : 0-new  1-cont  2-samecut
   ICHARG =      2    charge: 1-file 2-atom 10-const
   ISPIN  =      2    spin polarized calculation?
   LNONCOLLINEAR =      F non collinear calculations
   LSORBIT =      F    spin-orbit coupling
   INIWAV =      1    electr: 0-lowe 1-rand  2-diag
   LASPH  =      F    aspherical Exc in radial PAW
   METAGGA=      F    non-selfconsistent MetaGGA calc.

 Electronic Relaxation 1
   ENCUT  =  249.8 eV  18.36 Ry    4.29 a.u.  29.72 29.72 29.72*2*pi/ulx,y,z
   ENINI  =  249.8     initial cutoff
   ENAUG  =  412.5 eV  augmentation charge cutoff
   NELM   =     60;   NELMIN=  2; NELMDL= -5     # of ELM steps
   EDIFF  = 0.1E-03   stopping-criterion for ELM
   LREAL  =      F    real-space projection
   NLSPLINE    = F    spline interpolate recip. space projectors
   LCOMPAT=      F    compatible to vasp.4.4
   GGA_COMPAT  = T    GGA compatible to vasp.4.4-vasp.4.6
   LMAXPAW     = -100 max onsite density
   LMAXMIX     =    2 max onsite mixed and CHGCAR
   VOSKOWN=      0    Vosko Wilk Nusair interpolation
   ROPT   =    0.00000
 Ionic relaxation
   EDIFFG = 0.1E-02   stopping-criterion for IOM
   NSW    =   1000    number of steps for IOM
   NBLOCK =      1;   KBLOCK =   1000    inner block; outer block
   IBRION =      2    ionic relax: 0-MD 1-quasi-New 2-CG
   NFREE  =      1    steps in history (QN), initial steepest desc. (CG)
   ISIF   =      2    stress and relaxation
   IWAVPR =     11    prediction:  0-non 1-charg 2-wave 3-comb
   ISYM   =      2    0-nonsym 1-usesym 2-fastsym
   LCORR  =      T    Harris-Foulkes like correction to forces

   POTIM  = 0.1000    time-step for ionic-motion
   TEIN   =    0.0    initial temperature
   TEBEG  =    0.0;   TEEND  =   0.0 temperature during run
   SMASS  =  -3.00    Nose mass-parameter (am)
   estimated Nose-frequenzy (Omega)   =  0.10E-29 period in steps =****** mass=  -0.121E-25a.u.
   SCALEE = 1.0000    scale energy and forces
   NPACO  =    256;   APACO  = 16.0  distance and # of slots for P.C.
   PSTRESS=    0.0 pullay stress

  Mass of Ions in am
   POMASS = 107.87
  Ionic Valenz
   ZVAL   =  11.00
  Atomic Wigner-Seitz radii
  virtual crystal weights
   VCA    =   1.00
   NELECT =     550.0000    total number of electrons
   NUPDOWN=      -1.0000    fix difference up-down

 DOS related values:
   EMIN   =  10.00;   EMAX   =-10.00  energy-range for DOS
   EFERMI =   0.00
   ISMEAR =     0;   SIGMA  =   0.00  broadening in eV -4-tet -1-fermi 0-gaus

 Electronic relaxation 2 (details)
   IALGO  =     38    algorithm
   LDIAG  =      T    sub-space diagonalisation (order eigenvalues)
   LSUBROT=      F    optimize rotation matrix (better conditioning)
   TURBO    =      0    0=normal 1=particle mesh
   IRESTART =      0    0=no restart 2=restart with 2 vectors
   NREBOOT  =      0    no. of reboots
   NMIN     =      0    reboot dimension
   EREF     =   0.00    reference energy to select bands
   IMIX   =      4    mixing-type and parameters
     AMIX     =   0.40;   BMIX     =  1.00
     AMIX_MAG =   1.60;   BMIX_MAG =  1.00
     AMIN     =   0.10
     WC   =   100.;   INIMIX=   1;  MIXPRE=   1;  MAXMIX= -45

 Intra band minimization:
   WEIMIN = 0.0010     energy-eigenvalue tresh-hold
   EBREAK =  0.70E-07  absolut break condition
   DEPER  =   0.30     relativ break condition

   TIME   =   0.40     timestep for ELM

  volume/ion in A,a.u.               =     245.18      1654.56
  Fermi-wavevector in a.u.,A,eV,Ry     =   0.581715  1.099282  4.604104  0.338392
  Thomas-Fermi vector in A             =   1.626331

 Write flags
   LWAVE  =      F    write WAVECAR
   LCHARG =      F    write CHGCAR
   LVTOT  =      F    write LOCPOT, total local potential
   LVHAR  =      F    write LOCPOT, Hartree potential only
   LELF   =      F    write electronic localiz. function (ELF)
   LORBIT =      0    0 simple, 1 ext, 2 COOP (PROOUT)

 Dipole corrections
   LMONO  =      F    monopole corrections only (constant potential shift)
   LDIPOL =      F    correct potential (dipole corrections)
   IDIPOL =      0    1-x, 2-y, 3-z, 4-all directions
   EPSILON=  1.0000000 bulk dielectric constant

 Exchange correlation treatment:
   GGA     =    PE    GGA type
   VOSKOWN=      0    Vosko Wilk Nusair interpolation
   LHFCALC =     F    Hartree Fock is set to
   LHFONE  =     F    Hartree Fock one center treatment
   AEXX    =    0.0000 exact exchange contribution

 Linear response parameters
   LEPSILON=     F    determine dielectric tensor
   LRPA    =     F    only Hartree local field effects (RPA)
   LNABLA  =     F    use nabla operator in PAW spheres
   LVEL    =     F    velocity operator in full k-point grid
   LINTERFAST=   F  fast interpolation
   KINTER  =     0    interpolate to denser k-point grid
   CSHIFT  =0.1000    complex shift for real part using Kramers Kronig
   OMEGAMAX=  -1.0    maximum frequency
   DEG_THRESHOLD= 0.2000000E-02 threshold for treating states as degnerate
   RTIME   =    0.100 relaxation time in fs

 Orbital magnetization related:
   ORBITALMAG=     F  switch on orbital magnetization
   LCHIMAG   =     F  perturbation theory with respect to B field
   DQ        =  0.001000  dq finite difference perturbation B field

 conjugate gradient relaxation of ions
 charge density and potential will be updated during run
 spin polarized calculation
 Variant of blocked Davidson
[...]
      16 -82.0073      17 -82.3077      18 -81.9881      19 -81.9528      20 -82.3655
      21 -81.9433      22 -81.9016      23 -81.9801      24 -82.3438      25 -82.0476
      26 -82.0315      27 -82.1552      28 -81.9974      29 -82.4151      30 -82.3547
      31 -82.0924      32 -82.1506      33 -82.0016      34 -82.3757      35 -82.4557
      36 -82.1582      37 -81.9230      38 -82.0452      39 -82.2942      40 -82.1741
      41 -82.2165      42 -82.0072      43 -82.0282      44 -82.0229      45 -81.9677
      46 -82.1121      47 -81.9172      48 -82.0869      49 -81.9956      50 -81.9151

 E-fermi :  -3.2224     XC(G=0):  -1.3719     alpha+bet : -0.9362

[...]

 spin component 2

 k-point     1 :       0.0000    0.0000    0.0000
  band No.  band energies     occupation
      1      -9.7409      1.00000
      2      -9.2618      1.00000
      3      -9.1127      1.00000
      4      -9.0900      1.00000
      5      -9.0440      1.00000
      6      -9.0067      1.00000
      7      -8.9707      1.00000
      8      -8.9376      1.00000
      9      -8.9307      1.00000
     10      -8.9077      1.00000
     11      -8.8787      1.00000
     12      -8.8578      1.00000
     13      -8.8238      1.00000
     14      -8.8040      1.00000
     15      -8.7533      1.00000
     16      -8.7337      1.00000
     17      -8.7151      1.00000
     18      -8.6772      1.00000
     19      -8.6768      1.00000
     20      -8.6573      1.00000
     21      -8.6358      1.00000
     22      -8.6271      1.00000
     23      -8.6120      1.00000
     24      -8.6001      1.00000
     25      -8.5739      1.00000
     26      -8.5636      1.00000
     27      -8.5521      1.00000
     28      -8.5150      1.00000
     29      -8.5101      1.00000
     30      -8.4989      1.00000
     31      -8.4887      1.00000
     32      -8.4741      1.00000
     33      -8.4707      1.00000
     34      -8.4420      1.00000
     35      -8.4326      1.00000
     36      -8.4161      1.00000
     37      -8.4035      1.00000
     38      -8.3865      1.00000
     39      -8.3739      1.00000
     40      -8.3679      1.00000
     41      -8.3487      1.00000
     42      -8.3381      1.00000
     43      -8.3291      1.00000
     44      -8.3227      1.00000
     45      -8.3137      1.00000
     46      -8.2988      1.00000
     47      -8.2878      1.00000
     48      -8.2664      1.00000
     49      -8.2586      1.00000
     50      -8.2502      1.00000
     51      -8.2309      1.00000
     52      -8.2176      1.00000
     53      -8.1981      1.00000
     54      -8.1811      1.00000
     55      -8.1712      1.00000
     56      -8.1685      1.00000
     57      -8.1526      1.00000
     58      -8.1383      1.00000
     59      -8.1310      1.00000
     60      -8.1224      1.00000
[...]
    342       1.2968      0.00000
    343       1.3513      0.00000
    344       1.3686      0.00000
    345       1.3846      0.00000
    346       1.4378      0.00000
    347       1.4722      0.00000
    348       1.4830      0.00000
    349       1.5073      0.00000
    350       1.5189      0.00000
    351       1.5622      0.00000
    352       1.5629      0.00000
    353       1.5706      0.00000
    354       1.5767      0.00000
    355       1.6000      0.00000
    356       1.6085      0.00000

[...]

 soft charge-density along one line, spin component           2
         0         1         2         3         4         5         6         7         8         9
 total charge-density along one line

------------------------ aborting loop because EDIFF is reached ----------------------------------------

  FORCE on cell =-STRESS in cart. coord.  units (eV):
  Direction    XX          YY          ZZ          XY          YZ          ZX
  Alpha Z   173.45921   173.45921   173.45921
  Ewald   62732.30726 45172.99620 39089.07814  2994.93426  6491.88194-12039.40997
  Hartree 78933.32764 61736.57166 56182.99797  2759.29390  6087.93378-11378.77001
  E(xc)   -2900.01060 -2899.44741 -2900.62956     0.42855     0.49512    -0.68150
  Local  ************************************ -5749.39580-12577.53155 23423.31250
  n-local  -513.03547  -518.81717  -516.77772    -0.10421     0.44879    -4.02667
  augment  4596.63951  4592.34045  4596.64722    -1.45920    -0.86290    -0.02800
  Kinetic  6847.70279  6835.50935  6847.27434    -3.58703    -2.54378    -1.13823
  Fock        0.00000     0.00000     0.00000     0.00000     0.00000     0.00000
  Total     -17.08487   -16.91565   -16.75901     0.11046    -0.17861    -0.74188
  in kB      -2.23288    -2.21076    -2.19029     0.01444    -0.02334    -0.09696

 VOLUME and BASIS-vectors are now :
  energy-cutoff  :      249.84
  volume of cell :    12259.05
      direct lattice vectors                 reciprocal lattice vectors
    23.057857199  0.000000000  0.000000000     0.043369164  0.000000000  0.000000000
     0.000000000 23.057857199  0.000000000     0.000000000  0.043369164  0.000000000
     0.000000000  0.000000000 23.057857199     0.000000000  0.000000000  0.043369164

  length of vectors
    23.057857199 23.057857199 23.057857199     0.043369164  0.043369164  0.043369164

 FORCES acting on ions
    electron-ion (+dipol)            ewald-force                    non-local-force                 convergence-correction
   -.506E+03 -.797E+03 0.157E+04   0.506E+03 0.795E+03 -.156E+04   0.508E+00 0.250E+01 -.464E+01   -.689E-02 0.483E-02 0.198E-01
   -.637E+02 0.233E+03 0.179E+04   0.640E+02 -.233E+03 -.178E+04   -.354E+00 -.646E-01 -.495E+01   0.613E-02 -.229E-01 0.242E-01
   -.115E+04 0.334E+03 0.134E+04   0.114E+04 -.334E+03 -.134E+04   0.197E+01 -.182E+00 -.314E+01   -.916E-02 0.146E-01 0.796E-02
   -.355E+03 0.112E+04 0.120E+04   0.354E+03 -.112E+04 -.120E+04   0.477E+00 -.108E+01 -.693E+00   0.222E-02 0.209E-02 -.850E-02
   0.458E+03 -.730E+03 0.151E+04   -.458E+03 0.729E+03 -.151E+04   -.323E+00 0.108E+01 -.245E+01   0.784E-02 0.365E-02 0.192E-01
   -.133E+04 -.674E+03 0.948E+03   0.133E+04 0.673E+03 -.946E+03   0.146E+01 0.903E+00 -.129E+01   0.543E-01 -.585E-03 -.995E-02
   -.118E+04 0.116E+04 0.669E+03   0.118E+04 -.115E+04 -.667E+03   0.280E+01 -.317E+01 -.191E+01   0.136E-01 -.170E-01 0.120E-02
   -.345E+03 -.139E+04 0.942E+03   0.345E+03 0.139E+04 -.941E+03   0.411E+00 0.242E+01 -.831E+00   0.561E-02 -.248E-02 -.129E-01
   -.373E+03 -.391E+02 0.874E+03   0.373E+03 0.393E+02 -.872E+03   0.326E+00 -.125E+00 -.151E+01   0.377E-01 -.260E-01 -.195E-01
   0.577E+03 0.619E+03 0.158E+04   -.576E+03 -.618E+03 -.157E+04   -.106E+01 -.106E+01 -.266E+01   0.459E-02 -.953E-02 -.165E-01
   0.113E+04 -.196E+03 0.135E+04   -.113E+04 0.195E+03 -.135E+04   -.190E+01 0.962E+00 -.162E+01   -.287E-01 0.162E-01 -.442E-01
   0.201E+03 0.153E+04 0.825E+03   -.200E+03 -.153E+04 -.824E+03   -.502E+00 -.233E+01 -.118E+01   -.243E-01 -.246E-01 0.236E-01
   -.550E+03 0.170E+04 0.122E+03   0.549E+03 -.169E+04 -.123E+03   0.765E+00 -.389E+01 0.955E+00   0.253E-01 0.309E-02 -.489E-01
   -.155E+04 0.392E+03 0.312E+03   0.155E+04 -.391E+03 -.312E+03   0.724E+00 -.620E+00 0.561E-01   -.734E-03 0.118E-01 -.154E-01
   0.109E+04 0.934E+03 0.102E+04   -.109E+04 -.933E+03 -.102E+04   -.204E+01 -.161E+01 -.109E+01   0.991E-02 -.226E-01 0.227E-01
   0.922E+03 -.112E+04 0.105E+04   -.920E+03 0.112E+04 -.105E+04   -.207E+01 0.169E+01 -.190E+01   0.101E-01 0.515E-02 -.250E-02
   -.607E+03 0.658E+03 -.302E+02   0.606E+03 -.658E+03 0.303E+02   0.923E+00 -.406E+00 -.120E+00   -.441E-01 0.125E-01 -.220E-01
   -.106E+04 -.147E+04 0.224E+03   0.106E+04 0.147E+04 -.224E+03   0.151E+01 0.429E+01 -.406E+00   -.821E-02 -.266E-02 0.884E-02
   -.173E+04 -.412E+03 -.763E+02   0.173E+04 0.411E+03 0.753E+02   0.469E+01 0.102E+01 0.989E+00   -.229E-01 0.863E-02 0.584E-02
   0.548E+02 -.635E+03 0.316E+03   -.545E+02 0.635E+03 -.315E+03   -.283E+00 0.426E+00 -.603E+00   -.151E-01 -.945E-02 0.304E-01
   0.160E+04 -.779E+03 0.316E+03   -.160E+04 0.776E+03 -.314E+03   -.397E+01 0.294E+01 -.252E+01   0.157E-01 -.787E-02 0.653E-02
   -.127E+04 0.117E+04 -.552E+03   0.127E+04 -.117E+04 0.550E+03   0.250E+01 -.341E+01 0.212E+01   -.124E-01 -.895E-02 0.542E-02
   0.161E+04 0.129E+03 0.697E+03   -.161E+04 -.129E+03 -.696E+03   -.273E+01 -.449E+00 -.125E+01   0.160E-01 -.144E-01 0.194E-01
   0.288E+03 0.402E+03 0.535E+03   -.288E+03 -.402E+03 -.533E+03   0.167E-01 -.107E+00 -.130E+01   0.207E-01 0.200E-01 0.289E-01
   0.129E+03 -.169E+04 0.594E+03   -.129E+03 0.169E+04 -.593E+03   -.345E+00 0.335E+01 -.158E+01   -.105E-01 0.213E-01 0.121E-01
   -.128E+04 -.871E+03 -.983E+03   0.128E+04 0.868E+03 0.980E+03   0.300E+01 0.290E+01 0.312E+01   -.184E-01 -.135E-01 -.257E-01
   0.626E+03 0.167E+04 0.232E+03   -.626E+03 -.166E+04 -.231E+03   -.866E+00 -.413E+01 -.816E+00   -.168E-01 0.384E-01 -.283E-03
   -.145E+04 0.319E+03 -.966E+03   0.145E+04 -.318E+03 0.963E+03   0.196E+01 -.516E+00 0.226E+01   -.751E-02 0.100E-01 -.338E-02
   -.822E+03 -.388E+03 -.497E+02   0.820E+03 0.388E+03 0.494E+02   0.121E+01 0.608E+00 0.270E+00   0.130E-01 -.823E-02 0.957E-02
   0.857E+03 -.290E+03 0.101E+03   -.855E+03 0.290E+03 -.101E+03   -.151E+01 0.134E+00 -.846E-01   -.514E-02 -.952E-02 0.834E-02
   0.964E+03 -.142E+04 0.138E+03   -.964E+03 0.142E+04 -.137E+03   -.547E+00 0.174E+01 -.392E+00   0.129E-01 -.671E-02 0.289E-01
   -.246E+03 0.147E+04 -.471E+03   0.246E+03 -.147E+04 0.471E+03   -.138E+00 -.107E+01 0.633E+00   -.969E-02 -.193E-01 -.287E-01
   0.164E+04 0.857E+02 -.569E+03   -.164E+04 -.853E+02 0.569E+03   -.268E+01 -.385E+00 0.971E-01   0.135E-01 0.699E-02 -.226E-01
   0.692E+03 0.717E+03 -.300E+03   -.691E+03 -.716E+03 0.300E+03   -.987E+00 -.950E+00 0.234E+00   0.130E-02 -.389E-01 -.821E-02
   -.952E+02 0.218E+03 -.611E+03   0.946E+02 -.218E+03 0.611E+03   0.607E+00 -.242E+00 0.222E+00   -.156E-01 0.240E-01 -.511E-01
   -.475E+02 -.172E+04 -.467E+03   0.469E+02 0.172E+04 0.466E+03   0.665E+00 0.434E+01 0.766E+00   -.563E-02 -.656E-02 -.107E-02
   0.147E+04 0.101E+04 0.468E+02   -.147E+04 -.101E+04 -.468E+02   -.360E+01 -.279E+01 -.598E-01   0.213E-01 0.140E-01 -.546E-02
   -.840E+03 0.918E+03 -.129E+04   0.838E+03 -.915E+03 0.128E+04   0.159E+01 -.238E+01 0.316E+01   0.113E-01 0.109E-01 -.162E-02
   0.201E+03 -.715E+03 -.679E+03   -.201E+03 0.714E+03 0.678E+03   -.689E+00 0.136E+01 0.124E+01   -.408E-02 0.952E-02 0.133E-01
   -.852E+03 -.215E+03 -.125E+04   0.852E+03 0.215E+03 0.125E+04   -.104E+00 0.139E+00 0.208E+00   0.275E-01 0.182E-01 -.206E-01
   -.610E+03 -.138E+04 -.395E+03   0.609E+03 0.138E+04 0.395E+03   0.331E+00 0.549E+00 0.348E+00   -.622E-02 -.167E-01 0.203E-01
   0.135E+04 -.649E+03 -.867E+03   -.135E+04 0.648E+03 0.866E+03   -.157E+01 0.916E+00 0.104E+01   -.133E-01 0.575E-02 0.623E-02
   0.341E+03 0.153E+04 -.875E+03   -.340E+03 -.153E+04 0.873E+03   -.407E+00 -.445E+01 0.181E+01   0.479E-02 -.695E-02 -.135E-01
   0.770E+03 0.176E+03 -.140E+04   -.771E+03 -.176E+03 0.140E+04   0.268E+00 -.241E+00 -.222E+00   -.372E-02 0.311E-01 0.213E-01
   0.728E+03 -.133E+04 -.927E+03   -.726E+03 0.132E+04 0.924E+03   -.140E+01 0.377E+01 0.322E+01   -.156E-02 0.615E-02 0.676E-02
   -.886E+02 0.972E+03 -.150E+04   0.878E+02 -.970E+03 0.150E+04   0.823E+00 -.205E+01 0.277E+01   -.167E-01 -.186E-01 -.109E-01
   0.111E+04 0.818E+03 -.118E+04   -.111E+04 -.816E+03 0.118E+04   -.220E+01 -.229E+01 0.360E+01   0.634E-02 0.106E-01 0.516E-02
   -.323E+03 0.142E+03 -.176E+04   0.321E+03 -.142E+03 0.175E+04   0.167E+01 -.485E+00 0.324E+01   -.292E-01 -.112E-01 0.316E-01
   -.553E+03 -.996E+03 -.143E+04   0.552E+03 0.993E+03 0.143E+04   0.170E+01 0.261E+01 0.372E+01   -.617E-02 0.630E-02 -.200E-01
   0.448E+03 -.514E+03 -.167E+04   -.448E+03 0.513E+03 0.167E+04   -.338E+00 0.164E+01 0.406E+01   0.509E-02 0.713E-02 0.163E-01
   -.243E+00 -.174E+01 -.724E+00   -.136E-11 -.159E-11 -.273E-11   0.285E+00 0.180E+01 0.914E+00   0.406E-02 -.228E-02 -.966E-02

 POSITION                                       TOTAL-FORCE (eV/Angst)
     14.11831     13.37011      6.99166         0.006313     -0.003427     -0.005927
     12.89201     10.97734      6.45058        -0.005474      0.006162     -0.000285
     15.56022     10.75058      7.63763        -0.003027     -0.003235     -0.001128
     13.38540      8.97116      8.36823         0.002275      0.008999     -0.004083
     11.22805     13.04931      8.01311        -0.003170     -0.001188     -0.009827
     16.05859     13.28586      8.97493        -0.013475     -0.004605      0.003937
     15.94722      8.32554      9.26019        -0.010346      0.005692     -0.000419
     13.39859     14.65932      9.37190         0.005908      0.001841     -0.001753
     13.37855     11.73571      9.13304        -0.005826     -0.005096     -0.002036
     10.70881      9.99934      7.78923         0.003508      0.003511     -0.006904
      8.80617     11.78253      8.84057         0.010814      0.001779      0.026453
     11.20870      7.86170      9.68817        -0.002375     -0.001767     -0.004683
     13.77143      7.35028     10.71399        -0.004688      0.000751      0.014448
     16.38501     10.78409     10.34305        -0.000505      0.004118      0.002835
      8.60483      9.12057      9.71087        -0.007235     -0.007731      0.005237
      9.31619     14.31617      9.77748        -0.005147     -0.000230     -0.003220
     13.61840     10.08606     11.34579         0.008476      0.007235      0.004220
     15.65104     15.32623     10.96695         0.009793      0.000136     -0.003297
     17.41921     13.10784     11.44802         0.001620     -0.002978      0.000372
     11.70184     13.20521     11.06462        -0.006443     -0.012953     -0.002809
      6.69327     13.62575     11.71019        -0.002120     -0.000228     -0.000010
     15.81530      8.65928     12.19689         0.014860     -0.005094     -0.001606
      6.83879     11.02066     10.66826        -0.013182      0.002889      0.001959
     10.92073     10.54392     10.48024         0.011471     -0.000418      0.018235
     11.33583     15.94914     10.84757        -0.000891     -0.002062     -0.004809
     15.93416     14.16148     13.57764        -0.003407     -0.000777      0.003232
      9.20565      7.08103     11.47507         0.010349      0.003706     -0.001148
     16.07468     11.24429     13.23371        -0.003251      0.004889     -0.000533
     14.54419     12.80272     11.46112         0.005512      0.004725      0.007954
      9.09753     12.35330     11.91266         0.003324      0.003307     -0.008918
      8.84204     15.41862     12.29395        -0.006668      0.003699     -0.007060
     11.74318      8.22995     12.51986        -0.004685      0.005936      0.006756
      6.74595     11.23096     13.41544        -0.006613     -0.000607     -0.000328
      9.21571      9.62794     12.70801        -0.007776      0.002367      0.003473
     11.53456     11.22587     13.12970        -0.001811     -0.002258     -0.011469
     11.20982     16.59089     13.58047        -0.001212     -0.004615     -0.001781
      6.76782      8.55034     12.09949         0.000361     -0.000867      0.002592
     13.72649      9.75839     14.12498         0.000703     -0.006271      0.007020
     10.70164     13.82186     13.77923         0.002451      0.000235     -0.006362
     13.77503     12.62729     14.27364         0.014773      0.006898     -0.010809
     13.34354     15.06218     12.71490         0.004780      0.001571     -0.005925
      7.69401     13.72672     14.32952         0.005757     -0.006902     -0.004703
      9.51092      7.12738     14.17911        -0.000050      0.011351      0.004104
      9.01955     11.42351     15.14547         0.003620     -0.006165     -0.004188
      8.95392     16.07510     15.04897         0.000652     -0.002753     -0.005040
     10.91996      9.30715     15.09666         0.010947     -0.003389      0.011770
      7.61478      9.01756     14.89905        -0.009788     -0.006857     -0.000283
     11.70217     11.90811     15.89827        -0.001727      0.010027      0.002785
     12.49154     14.79760     15.57220        -0.003372     -0.000616      0.001825
      9.72979     13.80216     16.44650        -0.004001     -0.008737     -0.007862
    total drift:                                0.046408      0.064530      0.179951

  FREE ENERGIE OF THE ION-ELECTRON SYSTEM (eV)
  free  energy   TOTEN  =      -109.17268643 eV

  energy  without entropy=     -109.17268643  energy(sigma->0) =     -109.17268643

 d Force = 0.3541973E-03[-0.203E-03, 0.911E-03]  d Energy = 0.2654197E-03 0.888E-04
 d Force =-0.3472328E+01[-0.348E+01,-0.347E+01]  d Ewald  =-0.3472328E+01 0.457E-07

 reached required accuracy - stopping structural energy minimisation