 vasp.5.3.5 31Mar14 (build Feb 01 2018 12:10:03) gamma-only

 executed on             LinuxIFC date 2019.03.24  23:45:24

 INCAR:
 POTCAR:    PAW_PBE Ag 02Apr2005
 POTCAR:    PAW_PBE Ag 02Apr2005
   VRHFIN =Ag : s1 d10

   TITEL  = PAW_PBE Ag 02Apr2005
   POMASS =  107.868; ZVAL   =   11.000    mass and valenz
   ENMAX  =  249.844; ENMIN  =  187.383 eV

  PAW_PBE Ag 02Apr2005                  :

 POSCAR: Ti50, -335.52927112 <s> Ag </s>
  positions in direct lattice
 exchange correlation table for  LEXCH =        8
   RHO(1)=    0.500       N(1)  =     2000
   RHO(2)=  100.500       N(2)  =     4000

 ion  position               nearest neighbor table
   1  0.743  0.588  0.557-   4 2.55   3 2.63   6 2.65  12 2.72  10 2.78   2 2.81
   2  0.699  0.516  0.469-  12 2.72   4 2.77  13 2.78   1 2.81   3 2.88   8 2.91  11 3.09   5 3.48

   3  0.739  0.476  0.580-  11 2.61   1 2.63   6 2.66  12 2.67  17 2.78   2 2.88
   4  0.661  0.628  0.494-   1 2.55  16 2.62   9 2.70  10 2.76   2 2.77  12 2.82  13 2.86  25 3.51

[...]

   6  0.710  0.553  0.662-   1 2.65   3 2.66  23 2.66  12 2.73  17 2.76  10 2.79
   7  0.564  0.408  0.317-  19 2.63  21 2.66  14 2.67   8 2.76  20 2.90   5 2.94
   8  0.617  0.431  0.423-  22 2.74   7 2.76  13 2.77  15 2.78   5 2.78  19 2.85  11 2.88   2 2.91
                            20 3.17
   9  0.593  0.650  0.400-  24 2.60  18 2.61   4 2.70  16 2.75  13 2.93  29 3.10   5 3.14
  10  0.653  0.647  0.612-   4 2.76   1 2.78   6 2.79  12 2.81  23 2.82  25 2.89  32 3.10  16 3.22

[...]

  12  0.638  0.533  0.569-   3 2.67   1 2.72   2 2.72   6 2.73  17 2.76  25 2.79  10 2.81  13 2.82
                             4 2.82  11 2.84  34 2.92  23 2.95
  13  0.580  0.539  0.462-  29 2.70  19 2.72   5 2.72   8 2.77   2 2.78  12 2.82   4 2.86   9 2.93
                            22 2.93  25 3.26  18 3.42
  14  0.516  0.505  0.274-   7 2.67  19 2.69  21 2.69  26 2.72   5 2.74  18 2.76
  15  0.590  0.331  0.486-  22 2.65  28 2.68  11 2.70   8 2.78  20 2.83  30 2.86
  16  0.569  0.694  0.509-   4 2.62  33 2.63  24 2.74   9 2.75  25 2.78  29 2.86  10 3.22  32 3.41

[...]

  18  0.505  0.600  0.348-   9 2.61  31 2.70  14 2.76  29 2.87  26 2.87  19 2.90  24 2.91   5 2.93
                            35 3.26  13 3.42
  19  0.508  0.479  0.388-  35 2.61   7 2.63   5 2.68  14 2.69  20 2.71  21 2.72  13 2.72   8 2.85
                            18 2.90  26 3.08  22 3.08  39 3.43  29 3.58
  20  0.495  0.365  0.414-  19 2.71  37 2.75  22 2.79  15 2.83  28 2.83   7 2.90  21 2.91  36 2.96
                             8 3.17  39 3.36
  21  0.449  0.415  0.308-   7 2.66  14 2.69  19 2.72  39 2.77  26 2.78  20 2.91
  22  0.534  0.430  0.510-  15 2.65  34 2.70   8 2.74  30 2.77  20 2.79  11 2.82  36 2.82  13 2.93
                            28 2.99  19 3.08  40 3.30  42 3.34
  23  0.598  0.567  0.687-  27 2.55   6 2.66  10 2.82  25 2.87  12 2.95  34 2.96  17 2.99  32 3.10
                            38 3.13
  24  0.497  0.707  0.415-   9 2.60  29 2.61  16 2.74  31 2.86  18 2.91  33 2.95
  25  0.539  0.602  0.582-  32 2.31  16 2.78  12 2.79  29 2.82  34 2.83  23 2.87  45 2.88  10 2.89
                            27 3.00  33 3.00  40 3.24  13 3.26   4 3.51
  26  0.408  0.529  0.314-  35 2.71  14 2.72  21 2.78  41 2.86  18 2.87  31 2.95  39 3.04  19 3.08

[...]

  31  0.400  0.633  0.388-  35 2.64  18 2.70  29 2.80  44 2.81  41 2.82  24 2.86  26 2.95
  32  0.526  0.676  0.650-  25 2.31  27 2.83  45 2.92  33 3.06  10 3.10  23 3.10  16 3.41
  33  0.458  0.694  0.537-  29 2.55  16 2.63  45 2.76  24 2.95  25 3.00  32 3.06  44 3.18
  34  0.531  0.483  0.615-  38 2.32  22 2.70  25 2.83  40 2.86  42 2.90  30 2.91  27 2.92  12 2.92
                            17 2.94  23 2.96  47 2.98
  35  0.415  0.528  0.432-  41 2.55  19 2.61  39 2.62  29 2.63  31 2.64  44 2.69  26 2.71  40 2.78
                            48 2.99  36 3.15  18 3.26
  36  0.413  0.410  0.503-  37 2.62  43 2.66  46 2.68  40 2.74  39 2.74  28 2.81  22 2.82  49 2.83
                            42 2.87  20 2.96  48 3.08  35 3.15
  37  0.389  0.317  0.442-  36 2.62  46 2.64  43 2.73  20 2.75  28 2.84  39 2.91
  38  0.527  0.452  0.711-  34 2.32  27 2.86  47 3.01  17 3.03  42 3.13  23 3.13  30 3.32
  39  0.367  0.432  0.394-  35 2.62  36 2.74  21 2.77  46 2.85  41 2.91  37 2.91  26 3.04  48 3.05
                            20 3.36  19 3.43
  40  0.429  0.518  0.552-  50 2.69  45 2.69  47 2.69  36 2.74  35 2.78  44 2.82  34 2.86  29 3.07
                            48 3.11  25 3.24  49 3.26  22 3.30  42 3.44
  41  0.313  0.547  0.393-  35 2.55  48 2.66  31 2.82  26 2.86  39 2.91  44 2.98
  42  0.449  0.386  0.620-  47 2.70  30 2.75  43 2.77  36 2.87  28 2.88  34 2.90  49 2.91  38 3.13
                            22 3.34  40 3.44
  43  0.369  0.319  0.559-  46 2.66  36 2.66  28 2.69  49 2.70  37 2.73  42 2.77
  44  0.359  0.605  0.500-  35 2.69  50 2.79  31 2.81  48 2.81  40 2.82  41 2.98  29 2.99  45 3.04
                            33 3.18
  45  0.419  0.615  0.618-  27 2.62  40 2.69  50 2.74  33 2.76  25 2.88  32 2.92  44 3.04  47 3.08

[...]

  48  0.308  0.494  0.496-  50 2.65  41 2.66  46 2.67  49 2.79  44 2.81  35 2.99  39 3.05  36 3.08
                            40 3.11
  49  0.331  0.425  0.594-  43 2.70  50 2.73  46 2.79  48 2.79  47 2.83  36 2.83  42 2.91  40 3.26

  50  0.325  0.543  0.599-  48 2.65  40 2.69  49 2.73  45 2.74  47 2.76  44 2.79

  LATTYP: Found a simple cubic cell.
 ALAT       =    22.9411734291

  Lattice vectors:

 A1 = (  22.9411734291,   0.0000000000,   0.0000000000)
 A2 = (   0.0000000000,  22.9411734291,   0.0000000000)
 A3 = (   0.0000000000,   0.0000000000,  22.9411734291)

Analysis of symmetry for initial positions (statically):
 Subroutine PRICEL returns:
 Original cell was already a primitive cell.

 Routine SETGRP: Setting up the symmetry group for a
 simple cubic supercell.

 Subroutine GETGRP returns: Found  1 space group operations
 (whereof  1 operations were pure point group operations)
 out of a pool of 48 trial point group operations.

The static configuration has the point symmetry C_1 .

Analysis of symmetry for dynamics (positions and initial velocities):
 Subroutine PRICEL returns:
 Original cell was already a primitive cell.

 Routine SETGRP: Setting up the symmetry group for a
 simple cubic supercell.

 Subroutine GETGRP returns: Found  1 space group operations
 (whereof  1 operations were pure point group operations)
 out of a pool of 48 trial point group operations.

The dynamic configuration has the point symmetry C_1 .

Analysis of magnetic symmetry:
 Subroutine PRICEL returns:
 Original cell was already a primitive cell.

 Subroutine MAGSYM returns: Found  1 space group operations
 (whereof  1 operations were pure point group operations)
 out of a pool of  1 trial space group operations
 (whereof  1 operations were pure point group operations)
 and found also     1 'primitive' translations

The magnetic configuration has the point symmetry C_1 .

 KPOINTS: Gamma-point only
  k-points in reciprocal lattice
Space group operators:
 irot       det(A)        alpha          n_x          n_y          n_z        tau_x        tau_y        tau_z
    1     1.000000     0.000000     1.000000     0.000000     0.000000     0.000000     0.000000     0.000000

 I would recommend the setting:
   dimension x,y,z NGX =    89 NGY =   89 NGZ =   89
 SYSTEM =  unknown system
 POSCAR =  Ti50, -335.52927112 <s> Ag </s>

 Startparameter for this run:
   NWRITE =      2    write-flag & timer
   PREC   = normal    normal or accurate (medium, high low for compatibility)
   ISTART =      0    job   : 0-new  1-cont  2-samecut
   ICHARG =      2    charge: 1-file 2-atom 10-const
   ISPIN  =      2    spin polarized calculation?
   LNONCOLLINEAR =      F non collinear calculations
   LSORBIT =      F    spin-orbit coupling
   INIWAV =      1    electr: 0-lowe 1-rand  2-diag
   LASPH  =      F    aspherical Exc in radial PAW
   METAGGA=      F    non-selfconsistent MetaGGA calc.

 Electronic Relaxation 1
   ENCUT  =  249.8 eV  18.36 Ry    4.29 a.u.  29.57 29.57 29.57*2*pi/ulx,y,z
   ENINI  =  249.8     initial cutoff
   ENAUG  =  412.5 eV  augmentation charge cutoff
   NELM   =     60;   NELMIN=  2; NELMDL= -5     # of ELM steps
   EDIFF  = 0.1E-03   stopping-criterion for ELM
   LREAL  =      F    real-space projection
   NLSPLINE    = F    spline interpolate recip. space projectors
   LCOMPAT=      F    compatible to vasp.4.4
   GGA_COMPAT  = T    GGA compatible to vasp.4.4-vasp.4.6
   LMAXPAW     = -100 max onsite density
   LMAXMIX     =    2 max onsite mixed and CHGCAR
   VOSKOWN=      0    Vosko Wilk Nusair interpolation
   ROPT   =    0.00000
 Ionic relaxation
   EDIFFG = 0.1E-02   stopping-criterion for IOM
   NSW    =   1000    number of steps for IOM
   NBLOCK =      1;   KBLOCK =   1000    inner block; outer block
   IBRION =      2    ionic relax: 0-MD 1-quasi-New 2-CG
   NFREE  =      1    steps in history (QN), initial steepest desc. (CG)
   ISIF   =      2    stress and relaxation
   IWAVPR =     11    prediction:  0-non 1-charg 2-wave 3-comb
   ISYM   =      2    0-nonsym 1-usesym 2-fastsym
   LCORR  =      T    Harris-Foulkes like correction to forces

   POTIM  = 0.1000    time-step for ionic-motion
   TEIN   =    0.0    initial temperature
   TEBEG  =    0.0;   TEEND  =   0.0 temperature during run
   SMASS  =  -3.00    Nose mass-parameter (am)
   estimated Nose-frequenzy (Omega)   =  0.10E-29 period in steps =****** mass=  -0.120E-25a.u.
   SCALEE = 1.0000    scale energy and forces
   NPACO  =    256;   APACO  = 16.0  distance and # of slots for P.C.
   PSTRESS=    0.0 pullay stress

  Mass of Ions in am
   POMASS = 107.87
  Ionic Valenz
   ZVAL   =  11.00
  Atomic Wigner-Seitz radii
  virtual crystal weights
   VCA    =   1.00
   NELECT =     550.0000    total number of electrons
   NUPDOWN=      -1.0000    fix difference up-down

 DOS related values:
   EMIN   =  10.00;   EMAX   =-10.00  energy-range for DOS
   EFERMI =   0.00
   ISMEAR =     0;   SIGMA  =   0.00  broadening in eV -4-tet -1-fermi 0-gaus

 Electronic relaxation 2 (details)
   IALGO  =     38    algorithm
   LDIAG  =      T    sub-space diagonalisation (order eigenvalues)
   LSUBROT=      F    optimize rotation matrix (better conditioning)
   TURBO    =      0    0=normal 1=particle mesh
   IRESTART =      0    0=no restart 2=restart with 2 vectors
   NREBOOT  =      0    no. of reboots
   NMIN     =      0    reboot dimension
   EREF     =   0.00    reference energy to select bands
   IMIX   =      4    mixing-type and parameters
     AMIX     =   0.40;   BMIX     =  1.00
     AMIX_MAG =   1.60;   BMIX_MAG =  1.00
     AMIN     =   0.10
     WC   =   100.;   INIMIX=   1;  MIXPRE=   1;  MAXMIX= -45

 Intra band minimization:
   WEIMIN = 0.0010     energy-eigenvalue tresh-hold
   EBREAK =  0.70E-07  absolut break condition
   DEPER  =   0.30     relativ break condition

   TIME   =   0.40     timestep for ELM

  volume/ion in A,a.u.               =     241.48      1629.57
  Fermi-wavevector in a.u.,A,eV,Ry     =   0.584674  1.104873  4.651058  0.341843
  Thomas-Fermi vector in A             =   1.630462

 Write flags
[...]
      16 -82.0791      17 -81.9744      18 -82.0593      19 -82.2936      20 -82.1093
      21 -81.9216      22 -82.3397      23 -82.0281      24 -81.9973      25 -82.2839
      26 -81.9420      27 -81.9134      28 -82.1190      29 -82.3392      30 -81.9078
      31 -82.0432      32 -81.9072      33 -81.9247      34 -82.3544      35 -82.4554
      36 -82.2847      37 -81.8440      38 -81.8291      39 -82.0191      40 -82.2281
      41 -81.9537      42 -82.1030      43 -81.9891      44 -82.1281      45 -82.1538
      46 -81.9157      47 -82.0791      48 -82.0775      49 -82.1177      50 -82.0123

 E-fermi :  -3.1658     XC(G=0):  -1.4147     alpha+bet : -0.9505

[...]

 spin component 2

 k-point     1 :       0.0000    0.0000    0.0000
  band No.  band energies     occupation
      1      -9.7485      1.00000
      2      -9.2760      1.00000
      3      -9.1118      1.00000
      4      -9.0704      1.00000
      5      -9.0419      1.00000
      6      -9.0191      1.00000
      7      -8.9950      1.00000
      8      -8.9632      1.00000
      9      -8.9565      1.00000
     10      -8.9418      1.00000
     11      -8.9008      1.00000
     12      -8.8897      1.00000
     13      -8.8692      1.00000
     14      -8.8537      1.00000
     15      -8.8360      1.00000
     16      -8.8299      1.00000
     17      -8.7885      1.00000
     18      -8.7786      1.00000
     19      -8.7486      1.00000
     20      -8.7226      1.00000
     21      -8.6865      1.00000
     22      -8.6622      1.00000
     23      -8.6579      1.00000
     24      -8.6291      1.00000
     25      -8.6140      1.00000
     26      -8.5886      1.00000
     27      -8.5687      1.00000
     28      -8.5615      1.00000
     29      -8.5336      1.00000
     30      -8.5297      1.00000
     31      -8.5100      1.00000
     32      -8.4852      1.00000
     33      -8.4781      1.00000
     34      -8.4680      1.00000
     35      -8.4569      1.00000
     36      -8.4520      1.00000
     37      -8.4394      1.00000
     38      -8.4255      1.00000
     39      -8.3974      1.00000
     40      -8.3917      1.00000
     41      -8.3769      1.00000
     42      -8.3709      1.00000
     43      -8.3520      1.00000
     44      -8.3281      1.00000
     45      -8.3190      1.00000
     46      -8.3109      1.00000
     47      -8.3000      1.00000
     48      -8.2867      1.00000
     49      -8.2645      1.00000
     50      -8.2626      1.00000
     51      -8.2453      1.00000
     52      -8.2351      1.00000
     53      -8.2201      1.00000
     54      -8.2167      1.00000
     55      -8.1957      1.00000
     56      -8.1890      1.00000
     57      -8.1748      1.00000
     58      -8.1673      1.00000
     59      -8.1400      1.00000
     60      -8.1330      1.00000
[...]
    342       1.2947      0.00000
    343       1.3672      0.00000
    344       1.3842      0.00000
    345       1.3903      0.00000
    346       1.4255      0.00000
    347       1.4579      0.00000
    348       1.4602      0.00000
    349       1.4872      0.00000
    350       1.5115      0.00000
    351       1.5283      0.00000
    352       1.5503      0.00000
    353       1.5667      0.00000
    354       1.5786      0.00000
    355       1.6089      0.00000
    356       1.6419      0.00000

[...]

 soft charge-density along one line, spin component           2
         0         1         2         3         4         5         6         7         8         9
 total charge-density along one line

------------------------ aborting loop because EDIFF is reached ----------------------------------------

  FORCE on cell =-STRESS in cart. coord.  units (eV):
  Direction    XX          YY          ZZ          XY          YZ          ZX
  Alpha Z   176.11944   176.11944   176.11944
  Ewald   56299.08663 43616.08506 47489.90326  4336.64214  4267.41345 11741.10116
  Hartree 72529.36828 60427.85412 64308.67027  4079.20162  4076.07653 11042.43687
  E(xc)   -2899.35762 -2900.11653 -2900.59205     0.32366     0.05003     0.83872
  Local  ************************************ -8414.89412 -8345.84830-22782.47469
  n-local  -518.03002  -519.22373  -517.05320     0.61152     0.83002     2.45675
  augment  4593.31673  4595.29282  4597.88432    -0.46096     0.23664    -1.50130
  Kinetic  6838.14011  6843.19359  6849.95934    -1.27074     0.95433    -2.86664
  Fock        0.00000     0.00000     0.00000     0.00000     0.00000     0.00000
  Total     -16.82201   -17.07210   -16.92434     0.15312    -0.28730    -0.00914
  in kB      -2.23224    -2.26543    -2.24582     0.02032    -0.03812    -0.00121

 VOLUME and BASIS-vectors are now :
  energy-cutoff  :      249.84
  volume of cell :    12073.88
      direct lattice vectors                 reciprocal lattice vectors
    22.941173429  0.000000000  0.000000000     0.043589749  0.000000000  0.000000000
     0.000000000 22.941173429  0.000000000     0.000000000  0.043589749  0.000000000
     0.000000000  0.000000000 22.941173429     0.000000000  0.000000000  0.043589749

  length of vectors
    22.941173429 22.941173429 22.941173429     0.043589749  0.043589749  0.043589749

 FORCES acting on ions
    electron-ion (+dipol)            ewald-force                    non-local-force                 convergence-correction
   -.161E+04 -.677E+03 0.336E+02   0.161E+04 0.675E+03 -.331E+02   0.450E+01 0.214E+01 -.433E+00   0.151E-03 -.156E-03 0.527E-03
   -.158E+04 0.694E+02 0.778E+03   0.158E+04 -.703E+02 -.775E+03   0.294E+01 0.860E+00 -.287E+01   0.989E-03 -.732E-04 0.163E-03
   -.162E+04 0.579E+03 -.371E+03   0.161E+04 -.578E+03 0.371E+03   0.467E+01 -.174E+01 0.411E+00   -.401E-04 0.981E-04 0.154E-03
   -.122E+04 -.112E+04 0.460E+03   0.122E+04 0.112E+04 -.459E+03   0.125E+01 0.170E+01 -.162E+01   0.612E-03 -.480E-03 0.764E-03
   -.113E+04 -.314E+03 0.138E+04   0.113E+04 0.314E+03 -.138E+04   0.310E+01 0.246E+00 -.151E+01   0.390E-05 -.109E-02 -.109E-02
   -.130E+04 -.379E+03 -.114E+04   0.129E+04 0.379E+03 0.114E+04   0.369E+01 0.426E+00 0.328E+01   -.733E-04 0.170E-03 0.253E-03
   -.740E+03 0.883E+03 0.145E+04   0.736E+03 -.881E+03 -.145E+04   0.359E+01 -.203E+01 -.312E+01   -.535E-03 -.137E-02 0.735E-03
   -.126E+04 0.741E+03 0.911E+03   0.126E+04 -.740E+03 -.909E+03   0.777E+00 -.130E+01 -.162E+01   0.157E-02 -.425E-04 -.630E-04
   -.864E+03 -.117E+04 0.105E+04   0.862E+03 0.117E+04 -.105E+04   0.231E+01 0.183E+01 -.203E+01   0.583E-03 -.180E-02 -.957E-03
   -.912E+03 -.135E+04 -.775E+03   0.910E+03 0.134E+04 0.774E+03   0.220E+01 0.229E+01 0.997E+00   -.116E-02 -.509E-03 0.873E-03
   -.127E+04 0.102E+04 -.112E+03   0.127E+04 -.102E+04 0.112E+03   -.236E+00 -.395E+00 0.355E+00   0.101E-02 0.110E-02 0.830E-03
   -.952E+03 -.126E+03 -.409E+03   0.950E+03 0.126E+03 0.409E+03   0.142E+01 0.369E+00 0.266E+00   0.338E-03 0.519E-03 0.133E-02
   -.654E+03 -.218E+03 0.408E+03   0.655E+03 0.218E+03 -.409E+03   -.894E-01 0.145E+00 0.242E+00   0.150E-02 -.110E-02 0.153E-02
   -.185E+03 -.668E+02 0.179E+04   0.184E+03 0.679E+02 -.179E+04   0.848E+00 -.108E+01 -.412E+01   -.409E-03 -.759E-03 0.784E-03
   -.947E+03 0.161E+04 0.258E+03   0.945E+03 -.160E+04 -.258E+03   0.219E+01 -.425E+01 -.736E+00   0.135E-02 -.652E-03 -.374E-03
   -.506E+03 -.170E+04 0.575E+02   0.505E+03 0.170E+04 -.561E+02   0.795E+00 0.227E+01 -.147E+01   -.216E-03 -.219E-03 -.622E-03
   -.935E+03 0.832E+03 -.130E+04   0.933E+03 -.830E+03 0.130E+04   0.150E+01 -.132E+01 0.355E+01   -.338E-03 0.140E-02 -.539E-04
   -.496E+02 -.905E+03 0.143E+04   0.496E+02 0.904E+03 -.143E+04   0.237E-01 0.145E+01 -.503E-01   -.579E-03 -.992E-03 -.738E-03
   -.128E+03 0.225E+03 0.872E+03   0.128E+03 -.226E+03 -.871E+03   -.270E+00 0.506E+00 -.164E+01   -.202E-03 -.107E-03 0.694E-04
   -.216E+03 0.150E+04 0.839E+03   0.215E+03 -.150E+04 -.838E+03   0.728E+00 -.211E+01 -.134E+01   -.289E-03 -.284E-02 0.671E-03
   0.443E+03 0.901E+03 0.147E+04   -.442E+03 -.899E+03 -.147E+04   -.843E+00 -.157E+01 -.228E+01   0.692E-04 -.127E-02 0.112E-02
   -.294E+03 0.744E+03 -.494E+02   0.294E+03 -.743E+03 0.490E+02   0.501E+00 -.671E+00 0.436E+00   0.318E-03 -.578E-03 0.162E-02
   -.579E+03 -.420E+03 -.157E+04   0.579E+03 0.419E+03 0.156E+04   -.516E-02 0.635E+00 0.176E+01   -.727E-03 0.392E-04 -.980E-03
   0.125E+03 -.166E+04 0.812E+03   -.125E+03 0.165E+04 -.810E+03   0.135E+00 0.455E+01 -.194E+01   -.424E-03 -.791E-03 -.291E-03
   -.151E+03 -.690E+03 -.563E+03   0.150E+03 0.688E+03 0.563E+03   0.214E+00 0.152E+01 0.656E+00   0.314E-03 -.236E-03 0.243E-02
   0.802E+03 -.244E+03 0.159E+04   -.801E+03 0.243E+03 -.159E+04   -.187E+01 0.109E+01 -.280E+01   -.651E-03 0.723E-04 0.943E-03
   0.348E+03 -.690E+03 -.163E+04   -.347E+03 0.690E+03 0.163E+04   -.105E+01 -.183E+00 0.347E+01   -.483E-03 0.176E-02 -.102E-02
   0.229E+02 0.180E+04 -.256E+03   -.230E+02 -.179E+04 0.255E+03   0.143E+00 -.354E+01 0.444E+00   0.123E-02 -.114E-02 -.399E-03
   0.193E+03 -.888E+03 0.282E+03   -.193E+03 0.887E+03 -.281E+03   0.457E+00 0.122E+01 -.544E+00   -.111E-02 -.140E-03 0.306E-03
   -.515E+03 0.147E+04 -.100E+04   0.514E+03 -.147E+04 0.100E+04   0.679E+00 -.325E+01 0.232E+01   0.120E-02 0.165E-02 0.510E-03
   0.963E+03 -.126E+04 0.921E+03   -.961E+03 0.126E+04 -.920E+03   -.224E+01 0.296E+01 -.135E+01   -.737E-03 0.517E-03 0.454E-03
   0.285E+02 -.154E+04 -.102E+04   -.281E+02 0.154E+04 0.102E+04   -.423E+00 0.414E+01 0.226E+01   -.678E-03 -.503E-04 -.148E-03
   0.696E+03 -.168E+04 -.233E+03   -.693E+03 0.167E+04 0.233E+03   -.226E+01 0.313E+01 0.245E+00   -.688E-03 0.877E-04 -.389E-03
   -.161E+03 0.421E+03 -.972E+03   0.160E+03 -.421E+03 0.972E+03   0.703E+00 0.534E+00 0.610E+00   0.348E-03 0.158E-02 0.132E-02
   0.757E+03 -.221E+03 0.551E+03   -.756E+03 0.221E+03 -.550E+03   -.104E+01 -.260E+00 -.149E+01   -.948E-03 -.365E-03 -.323E-03
   0.622E+03 0.770E+03 0.136E+03   -.621E+03 -.770E+03 -.137E+03   -.142E+01 -.805E+00 0.267E+00   0.591E-03 -.804E-03 0.725E-04
   0.733E+03 0.151E+04 0.728E+03   -.733E+03 -.150E+04 -.726E+03   -.583E+00 -.448E+01 -.139E+01   0.404E-03 -.132E-02 0.447E-03
   0.364E+02 0.489E+03 -.173E+04   -.354E+02 -.486E+03 0.173E+04   -.907E+00 -.333E+01 0.458E+01   -.521E-03 0.213E-02 -.118E-02
   0.134E+04 0.551E+03 0.100E+04   -.133E+04 -.550E+03 -.100E+04   -.197E+01 -.555E+00 -.931E+00   -.860E-03 -.574E-03 0.141E-02
   0.533E+03 -.407E+02 -.407E+03   -.532E+03 0.409E+02 0.406E+03   -.660E+00 -.243E+00 0.233E+00   0.687E-03 -.447E-03 0.215E-02
   0.156E+04 -.517E+03 0.800E+03   -.156E+04 0.515E+03 -.799E+03   -.484E+01 0.187E+01 -.119E+01   -.158E-02 0.227E-03 0.415E-03
   0.446E+03 0.112E+04 -.120E+04   -.446E+03 -.112E+04 0.120E+04   -.260E-01 -.708E+00 0.201E+01   0.127E-02 0.156E-02 0.895E-03
   0.864E+03 0.151E+04 -.560E+03   -.862E+03 -.151E+04 0.560E+03   -.150E+01 -.447E+01 0.441E+00   0.254E-02 -.674E-03 -.140E-03
   0.138E+04 -.107E+04 -.143E+03   -.138E+04 0.106E+04 0.144E+03   -.267E+01 0.191E+01 -.516E+00   -.179E-03 0.754E-03 0.667E-03
   0.928E+03 -.101E+04 -.101E+04   -.927E+03 0.101E+04 0.101E+04   -.756E+00 0.347E+00 0.111E+00   -.244E-03 0.306E-03 0.205E-02
   0.157E+04 0.889E+03 0.362E+02   -.157E+04 -.887E+03 -.358E+02   -.394E+01 -.177E+01 -.430E+00   0.557E-03 -.624E-03 0.103E-03
   0.846E+03 0.196E+03 -.152E+04   -.845E+03 -.196E+03 0.152E+04   -.134E+01 0.319E+00 0.317E+01   0.153E-02 0.235E-02 0.103E-02
   0.171E+04 -.959E+02 -.106E+03   -.171E+04 0.950E+02 0.105E+03   -.196E+01 0.937E+00 0.516E+00   0.380E-03 -.404E-03 0.413E-03
   0.132E+04 0.605E+03 -.978E+03   -.132E+04 -.604E+03 0.976E+03   -.100E+01 -.446E-01 0.155E+01   0.245E-02 -.386E-03 0.141E-02
   0.151E+04 -.388E+03 -.101E+04   -.150E+04 0.387E+03 0.101E+04   -.344E+01 0.105E+01 0.203E+01   0.166E-02 0.107E-02 0.237E-02
   -.203E+01 -.293E+00 0.111E+01   0.130E-10 -.387E-11 0.250E-11   0.200E+01 0.328E+00 -.120E+01   0.998E-02 -.463E-02 0.220E-01

 POSITION                                       TOTAL-FORCE (eV/Angst)
     17.36909     13.50958     12.75320         0.002108      0.003245      0.003017
     16.12084     11.64082     10.86312         0.003127      0.003042      0.000277
     17.27713     10.77522     13.56307         0.001458      0.002603      0.001920
     15.08371     14.36103     11.49382         0.005735      0.001360      0.001838
     13.75903     12.14852      7.98361        -0.005458     -0.008937     -0.007998
     16.65302     12.95671     15.38559         0.001892      0.001262     -0.001913
     12.91764      9.24116      7.19787        -0.004611     -0.002493      0.001450
     14.29315      9.80479      9.64234         0.006524      0.003258      0.000878
     13.32380     14.62499      9.37502         0.000344     -0.018549     -0.003124
     14.73096     15.01375     14.23976        -0.002082      0.001697     -0.001981
     15.10136      9.50263     12.41425         0.004127      0.007836      0.002380
     14.91696     12.23366     13.34073         0.004997      0.007165      0.009953
     13.27807     12.20610     10.95280         0.004346     -0.005633      0.005405
     11.55351     11.45648      6.24021        -0.010363     -0.004187      0.002610
     13.90933      7.37348     11.09748         0.013991     -0.000489      0.001212
     12.88826     16.01966     11.93921         0.000726      0.000856     -0.015572
     14.95688     10.17775     15.27825         0.002767      0.004032      0.000224
     11.21199     13.60939      7.92074        -0.005654     -0.008214     -0.006657
     11.58109     10.83790      9.13298        -0.009342      0.003245      0.003901
     11.65033      7.97620      9.37647        -0.003420     -0.004085      0.003571
      9.99272      9.25653      7.43230        -0.000092     -0.000938      0.008328
     12.27693      9.66032     11.69649         0.001844      0.002363      0.007997
     14.00080     12.89072     15.99711         0.006819      0.002554     -0.000949
     11.03708     16.30264      9.49414         0.001363     -0.012281     -0.004136
     12.42501     13.55806     13.35720         0.005713     -0.002569     -0.002030
      8.96849     11.98054      7.09453        -0.006385     -0.000028      0.002025
     11.41436     13.65300     16.17128         0.007231      0.013270     -0.014027
     11.25983      7.06535     11.99123         0.005288     -0.005126      0.014163
     11.00818     13.96266     10.88552        -0.007757      0.000475     -0.005800
     13.22691      8.11918     13.96547         0.005912      0.002831      0.005185
      8.82594     14.64569      8.89429        -0.004973     -0.002829     -0.000224
     11.98900     15.96611     14.61914        -0.005250      0.012978     -0.018630
     10.12406     16.29586     12.24644        -0.000959      0.000533     -0.009834
     12.49014     10.90100     14.19084         0.003156      0.004096      0.000481
      9.24065     12.04655      9.84415        -0.004705     -0.006498     -0.004592
      9.57800      9.42026     10.92854         0.001119      0.000869     -0.003192
      8.74868      7.38098      9.37449        -0.010534      0.000090      0.006160
     12.25096     10.94064     16.89045         0.000075      0.010980     -0.003097
      7.60955      9.96998      8.70846        -0.012560     -0.002250      0.012328
     10.23763     11.73329     12.47114         0.001674     -0.004719      0.003114
      6.76822     12.70996      8.73503        -0.008941     -0.005444      0.005765
     10.47817      8.92918     13.94520         0.004265      0.004129      0.004607
      8.57058      7.24152     12.49850         0.018878     -0.004739     -0.004907
      8.27758     13.99380     11.65085        -0.005578      0.001834     -0.005351
      9.73738     14.22436     14.06337        -0.002220     -0.003776     -0.005243
      6.70727      8.64501     11.00446        -0.005138      0.006711      0.002263
      9.86780     11.42124     15.23220         0.002699      0.006019     -0.004289
      6.92270     11.42622     11.27527        -0.004247     -0.003221      0.000863
      7.93855      9.83567     13.34202         0.003192      0.001329      0.008123
      7.57201     12.49010     13.91419        -0.001102     -0.003656      0.003508
    total drift:                               -0.016928      0.030209     -0.073189

  FREE ENERGIE OF THE ION-ELECTRON SYSTEM (eV)
  free  energy   TOTEN  =      -109.25973038 eV

  energy  without entropy=     -109.25973038  energy(sigma->0) =     -109.25973038

 d Force =-0.4844632E-05[-0.104E-04, 0.744E-06]  d Energy =-0.2097880E-04 0.161E-04
 d Force =-0.1464539E+00[-0.146E+00,-0.146E+00]  d Ewald  =-0.1464534E+00-0.518E-06

 reached required accuracy - stopping structural energy minimisation