 vasp.5.3.5 31Mar14 (build Feb 01 2018 12:10:03) gamma-only

 executed on             LinuxIFC date 2019.03.25  13:55:19

 INCAR:
 POTCAR:    PAW_PBE Ag 02Apr2005
 POTCAR:    PAW_PBE Ag 02Apr2005
   VRHFIN =Ag : s1 d10

   TITEL  = PAW_PBE Ag 02Apr2005
   POMASS =  107.868; ZVAL   =   11.000    mass and valenz
   ENMAX  =  249.844; ENMIN  =  187.383 eV

  PAW_PBE Ag 02Apr2005                  :

 POSCAR: Pt55, -281.77804828 <s> Ag </s>
  positions in direct lattice
 exchange correlation table for  LEXCH =        8
   RHO(1)=    0.500       N(1)  =     2000
   RHO(2)=  100.500       N(2)  =     4000

 ion  position               nearest neighbor table
   1  0.728  0.461  0.599-  12 2.72   3 2.74   9 2.78   5 2.80  23 2.83   2 2.87
   2  0.708  0.484  0.479-   8 2.86   1 2.87  15 2.88   3 2.90   6 2.93  12 2.93  14 3.04   7 3.09

   3  0.727  0.574  0.564-  14 2.73   1 2.74   5 2.82   4 2.85   2 2.90  10 2.91   6 3.41
   4  0.686  0.678  0.513-  10 2.72   6 2.76  16 2.80  21 2.84   3 2.85  14 2.89
   5  0.677  0.543  0.672-  22 2.74  13 2.78   1 2.80   3 2.82   9 2.87  10 2.88  19 2.91  12 3.55

[...]

  11  0.604  0.390  0.377-   7 2.72  15 2.72  29 2.76  24 2.77  17 2.81   8 2.86
  12  0.616  0.455  0.562-   1 2.72  28 2.73  26 2.75   7 2.75  15 2.78   9 2.85  22 2.86  14 2.90
                             2 2.93  20 2.94  23 3.01   5 3.55
  13  0.602  0.620  0.727-  19 2.72  27 2.75  10 2.77   5 2.78  30 2.84  22 2.97
  14  0.619  0.573  0.517-  31 2.64   6 2.66  15 2.71   3 2.73  22 2.73   4 2.89  12 2.90   2 3.04
                            10 3.05  28 3.20  16 3.37  21 3.55
  15  0.587  0.483  0.448-   8 2.69  14 2.71  11 2.72  32 2.73  28 2.74  12 2.78   2 2.88  39 3.04
                             7 3.09  24 3.12  18 3.46   6 3.48  17 3.60
  16  0.600  0.686  0.427-  31 2.76   4 2.80  38 2.81   6 2.81  18 2.84  36 2.85  21 2.91  14 3.37

[...]

  22  0.569  0.552  0.623-  14 2.73   5 2.74  26 2.74  37 2.76  28 2.83  12 2.86  10 2.88  19 2.95
                            30 2.95  13 2.97  27 3.06
  23  0.682  0.347  0.595-   7 2.72   9 2.73   1 2.83  20 2.83  12 3.01
  24  0.551  0.481  0.318-  11 2.77  43 2.81  18 2.83  29 2.84   8 2.84  40 2.88  32 2.92  15 3.12

[...]

  31  0.520  0.626  0.493-  14 2.64  37 2.70  32 2.71  21 2.73  16 2.76  49 2.92  36 2.96  42 3.05
                            38 3.07  28 3.27  45 3.30
  32  0.495  0.546  0.411-  31 2.71  45 2.72  15 2.73  39 2.76  50 2.79  18 2.88  24 2.92  43 2.93
                            38 2.94  40 3.01  28 3.17
  33  0.445  0.345  0.548-  35 2.71  46 2.71  20 2.76  48 2.83  17 2.85  41 2.86  39 3.19  26 3.59

[...]

  44  0.411  0.664  0.666-  52 2.77  27 2.78  42 2.79  30 2.82  47 2.83  37 2.84
  45  0.410  0.536  0.492-  53 2.66  28 2.67  54 2.68  32 2.72  37 2.73  51 2.79  39 2.83  48 3.05
                            52 3.12  49 3.19  50 3.29  31 3.30
  46  0.411  0.330  0.436-  55 2.69  33 2.71  39 2.75  17 2.82  48 2.82  29 2.96
  47  0.383  0.545  0.664-  37 2.73  34 2.76  30 2.79  41 2.80  53 2.81  44 2.83  52 3.15
  48  0.356  0.416  0.503-  41 2.75  53 2.77  46 2.82  33 2.83  39 2.87  51 2.88  45 3.05
  49  0.407  0.670  0.460-  36 2.75  54 2.77  50 2.82  52 2.84  42 2.85  31 2.92  38 2.93  45 3.19

[...]

  53  0.321  0.515  0.563-  45 2.66  41 2.75  48 2.77  47 2.81  52 2.87  54 3.03
  54  0.315  0.594  0.458-  45 2.68  51 2.76  49 2.77  52 2.80  50 2.86  53 3.03
  55  0.368  0.392  0.347-  46 2.69  51 2.70  43 2.71  29 2.80  39 3.34

  LATTYP: Found a simple cubic cell.
 ALAT       =    23.0912900956

  Lattice vectors:

 A1 = (  23.0912900956,   0.0000000000,   0.0000000000)
 A2 = (   0.0000000000,  23.0912900956,   0.0000000000)
 A3 = (   0.0000000000,   0.0000000000,  23.0912900956)

Analysis of symmetry for initial positions (statically):
 Subroutine PRICEL returns:
 Original cell was already a primitive cell.

 Routine SETGRP: Setting up the symmetry group for a
 simple cubic supercell.

 Subroutine GETGRP returns: Found  1 space group operations
 (whereof  1 operations were pure point group operations)
 out of a pool of 48 trial point group operations.

The static configuration has the point symmetry C_1 .

Analysis of symmetry for dynamics (positions and initial velocities):
 Subroutine PRICEL returns:
 Original cell was already a primitive cell.

 Routine SETGRP: Setting up the symmetry group for a
 simple cubic supercell.

 Subroutine GETGRP returns: Found  1 space group operations
 (whereof  1 operations were pure point group operations)
 out of a pool of 48 trial point group operations.

The dynamic configuration has the point symmetry C_1 .

Analysis of magnetic symmetry:
 Subroutine PRICEL returns:
 Original cell was already a primitive cell.

 Subroutine MAGSYM returns: Found  1 space group operations
 (whereof  1 operations were pure point group operations)
 out of a pool of  1 trial space group operations
 (whereof  1 operations were pure point group operations)
 and found also     1 'primitive' translations

The magnetic configuration has the point symmetry C_1 .

 KPOINTS: Gamma-point only
  k-points in reciprocal lattice
Space group operators:
 irot       det(A)        alpha          n_x          n_y          n_z        tau_x        tau_y        tau_z
    1     1.000000     0.000000     1.000000     0.000000     0.000000     0.000000     0.000000     0.000000

 I would recommend the setting:
   dimension x,y,z NGX =    89 NGY =   89 NGZ =   89
 SYSTEM =  unknown system
 POSCAR =  Pt55, -281.77804828 <s> Ag </s>

 Startparameter for this run:
   NWRITE =      2    write-flag & timer
   PREC   = normal    normal or accurate (medium, high low for compatibility)
   ISTART =      0    job   : 0-new  1-cont  2-samecut
   ICHARG =      2    charge: 1-file 2-atom 10-const
   ISPIN  =      2    spin polarized calculation?
   LNONCOLLINEAR =      F non collinear calculations
   LSORBIT =      F    spin-orbit coupling
   INIWAV =      1    electr: 0-lowe 1-rand  2-diag
   LASPH  =      F    aspherical Exc in radial PAW
   METAGGA=      F    non-selfconsistent MetaGGA calc.

 Electronic Relaxation 1
   ENCUT  =  249.8 eV  18.36 Ry    4.29 a.u.  29.76 29.76 29.76*2*pi/ulx,y,z
   ENINI  =  249.8     initial cutoff
   ENAUG  =  412.5 eV  augmentation charge cutoff
   NELM   =     60;   NELMIN=  2; NELMDL= -5     # of ELM steps
   EDIFF  = 0.1E-03   stopping-criterion for ELM
   LREAL  =      F    real-space projection
   NLSPLINE    = F    spline interpolate recip. space projectors
   LCOMPAT=      F    compatible to vasp.4.4
   GGA_COMPAT  = T    GGA compatible to vasp.4.4-vasp.4.6
   LMAXPAW     = -100 max onsite density
   LMAXMIX     =    2 max onsite mixed and CHGCAR
   VOSKOWN=      0    Vosko Wilk Nusair interpolation
   ROPT   =    0.00000
 Ionic relaxation
   EDIFFG = 0.1E-02   stopping-criterion for IOM
   NSW    =   1000    number of steps for IOM
   NBLOCK =      1;   KBLOCK =   1000    inner block; outer block
   IBRION =      2    ionic relax: 0-MD 1-quasi-New 2-CG
   NFREE  =      1    steps in history (QN), initial steepest desc. (CG)
   ISIF   =      2    stress and relaxation
   IWAVPR =     11    prediction:  0-non 1-charg 2-wave 3-comb
   ISYM   =      2    0-nonsym 1-usesym 2-fastsym
   LCORR  =      T    Harris-Foulkes like correction to forces

   POTIM  = 0.1000    time-step for ionic-motion
   TEIN   =    0.0    initial temperature
   TEBEG  =    0.0;   TEEND  =   0.0 temperature during run
   SMASS  =  -3.00    Nose mass-parameter (am)
   estimated Nose-frequenzy (Omega)   =  0.10E-29 period in steps =****** mass=  -0.122E-25a.u.
   SCALEE = 1.0000    scale energy and forces
   NPACO  =    256;   APACO  = 16.0  distance and # of slots for P.C.
   PSTRESS=    0.0 pullay stress

  Mass of Ions in am
   POMASS = 107.87
  Ionic Valenz
   ZVAL   =  11.00
  Atomic Wigner-Seitz radii
  virtual crystal weights
   VCA    =   1.00
   NELECT =     605.0000    total number of electrons
   NUPDOWN=      -1.0000    fix difference up-down

 DOS related values:
   EMIN   =  10.00;   EMAX   =-10.00  energy-range for DOS
   EFERMI =   0.00
   ISMEAR =     0;   SIGMA  =   0.00  broadening in eV -4-tet -1-fermi 0-gaus

 Electronic relaxation 2 (details)
   IALGO  =     38    algorithm
   LDIAG  =      T    sub-space diagonalisation (order eigenvalues)
   LSUBROT=      F    optimize rotation matrix (better conditioning)
   TURBO    =      0    0=normal 1=particle mesh
   IRESTART =      0    0=no restart 2=restart with 2 vectors
   NREBOOT  =      0    no. of reboots
   NMIN     =      0    reboot dimension
   EREF     =   0.00    reference energy to select bands
   IMIX   =      4    mixing-type and parameters
     AMIX     =   0.40;   BMIX     =  1.00
     AMIX_MAG =   1.60;   BMIX_MAG =  1.00
     AMIN     =   0.10
     WC   =   100.;   INIMIX=   1;  MIXPRE=   1;  MAXMIX= -45

 Intra band minimization:
   WEIMIN = 0.0010     energy-eigenvalue tresh-hold
   EBREAK =  0.64E-07  absolut break condition
   DEPER  =   0.30     relativ break condition

   TIME   =   0.40     timestep for ELM

  volume/ion in A,a.u.               =     223.86      1510.70
  Fermi-wavevector in a.u.,A,eV,Ry     =   0.599623  1.133124  4.891947  0.359548
  Thomas-Fermi vector in A             =   1.651175

 Write flags
   LWAVE  =      F    write WAVECAR
   LCHARG =      F    write CHGCAR
   LVTOT  =      F    write LOCPOT, total local potential
   LVHAR  =      F    write LOCPOT, Hartree potential only
   LELF   =      F    write electronic localiz. function (ELF)
   LORBIT =      0    0 simple, 1 ext, 2 COOP (PROOUT)

 Dipole corrections
   LMONO  =      F    monopole corrections only (constant potential shift)
   LDIPOL =      F    correct potential (dipole corrections)
   IDIPOL =      0    1-x, 2-y, 3-z, 4-all directions
   EPSILON=  1.0000000 bulk dielectric constant

 Exchange correlation treatment:
   GGA     =    PE    GGA type
   VOSKOWN=      0    Vosko Wilk Nusair interpolation
   LHFCALC =     F    Hartree Fock is set to
   LHFONE  =     F    Hartree Fock one center treatment
   AEXX    =    0.0000 exact exchange contribution

 Linear response parameters
   LEPSILON=     F    determine dielectric tensor
   LRPA    =     F    only Hartree local field effects (RPA)
   LNABLA  =     F    use nabla operator in PAW spheres
   LVEL    =     F    velocity operator in full k-point grid
   LINTERFAST=   F  fast interpolation
   KINTER  =     0    interpolate to denser k-point grid
   CSHIFT  =0.1000    complex shift for real part using Kramers Kronig
   OMEGAMAX=  -1.0    maximum frequency
   DEG_THRESHOLD= 0.2000000E-02 threshold for treating states as degnerate
   RTIME   =    0.100 relaxation time in fs

 Orbital magnetization related:
   ORBITALMAG=     F  switch on orbital magnetization
   LCHIMAG   =     F  perturbation theory with respect to B field
   DQ        =  0.001000  dq finite difference perturbation B field

 conjugate gradient relaxation of ions
 charge density and potential will be updated during run
 spin polarized calculation
 Variant of blocked Davidson
 Davidson routine will perform the subspace rotation
 perform sub-space diagonalisation
    after iterative eigenvector-optimisation
[...]
      8      -8.9402      1.00000
      9      -8.8796      1.00000
     10      -8.8199      1.00000
     11      -8.8073      1.00000
     12      -8.7690      1.00000
     13      -8.7296      1.00000
     14      -8.7217      1.00000
     15      -8.7020      1.00000
     16      -8.6919      1.00000
     17      -8.6649      1.00000
     18      -8.6521      1.00000
     19      -8.6389      1.00000
     20      -8.6063      1.00000
     21      -8.5851      1.00000
     22      -8.5753      1.00000
     23      -8.5664      1.00000
     24      -8.5540      1.00000
     25      -8.5414      1.00000
     26      -8.5345      1.00000
     27      -8.5176      1.00000
     28      -8.5060      1.00000
     29      -8.4946      1.00000
     30      -8.4819      1.00000
     31      -8.4627      1.00000
     32      -8.4474      1.00000
     33      -8.4345      1.00000
     34      -8.4236      1.00000
     35      -8.4144      1.00000
     36      -8.4094      1.00000
     37      -8.3977      1.00000
     38      -8.3864      1.00000
     39      -8.3759      1.00000
     40      -8.3635      1.00000
     41      -8.3558      1.00000
     42      -8.3373      1.00000
     43      -8.3235      1.00000
     44      -8.3133      1.00000
     45      -8.3024      1.00000
     46      -8.2942      1.00000
     47      -8.2906      1.00000
     48      -8.2696      1.00000
     49      -8.2666      1.00000
     50      -8.2404      1.00000
     51      -8.2322      1.00000
     52      -8.2162      1.00000
     53      -8.1960      1.00000
     54      -8.1888      1.00000
     55      -8.1729      1.00000
     56      -8.1612      1.00000
     57      -8.1339      1.00000
     58      -8.1240      1.00000
     59      -8.1194      1.00000
     60      -8.1131      1.00000
[...]
    378       1.5007      0.00000
    379       1.5063      0.00000
    380       1.5317      0.00000
    381       1.5406      0.00000
    382       1.5725      0.00000
    383       1.5933      0.00000
    384       1.6037      0.00000
    385       1.6094      0.00000
    386       1.6284      0.00000
    387       1.6481      0.00000
    388       1.6687      0.00000
    389       1.6976      0.00000
    390       1.7052      0.00000
    391       1.8013      0.00000
    392       1.8460      0.00000

[...]

 soft charge-density along one line, spin component           2
         0         1         2         3         4         5         6         7         8         9
 total charge-density along one line

------------------------ aborting loop because EDIFF is reached ----------------------------------------

  FORCE on cell =-STRESS in cart. coord.  units (eV):
  Direction    XX          YY          ZZ          XY          YZ          ZX
  Alpha Z   208.97531   208.97531   208.97531
  Ewald   55727.34505 50529.65602 63696.66987 -1832.57573  2844.76405  4604.93555
  Hartree 73958.86036 69065.98876 81834.23958 -1669.58498  2660.48768  4351.90212
  E(xc)   -3189.91556 -3190.55002 -3190.55031    -0.33894     0.28013     0.27162
  Local  ************************************  3495.67923 -5503.98103 -8957.18559
  n-local  -561.00243  -562.10736  -560.49556     1.15443     0.77857     0.86755
  augment  5053.33504  5055.03298  5056.48239     1.63979    -0.71584    -0.25999
  Kinetic  7522.03777  7526.36811  7529.47610     4.38011    -1.51106    -0.71782
  Fock        0.00000     0.00000     0.00000     0.00000     0.00000     0.00000
  Total     -18.67432   -18.56614   -19.39117     0.35390     0.10250    -0.18655
  in kB      -2.43003    -2.41595    -2.52331     0.04605     0.01334    -0.02427

 VOLUME and BASIS-vectors are now :
  energy-cutoff  :      249.84
  volume of cell :    12312.45
      direct lattice vectors                 reciprocal lattice vectors
    23.091290096  0.000000000  0.000000000     0.043306372  0.000000000  0.000000000
     0.000000000 23.091290096  0.000000000     0.000000000  0.043306372  0.000000000
     0.000000000  0.000000000 23.091290096     0.000000000  0.000000000  0.043306372

  length of vectors
    23.091290096 23.091290096 23.091290096     0.043306372  0.043306372  0.043306372

 FORCES acting on ions
    electron-ion (+dipol)            ewald-force                    non-local-force                 convergence-correction
   -.173E+04 0.396E+03 -.562E+03   0.173E+04 -.394E+03 0.561E+03   0.444E+01 -.155E+01 0.433E+00   0.178E-02 0.171E-02 -.594E-02
   -.174E+04 0.314E+03 0.478E+03   0.174E+04 -.312E+03 -.477E+03   0.326E+01 -.201E+01 -.323E+00   -.244E-02 0.172E-02 0.937E-03
   -.169E+04 -.477E+03 -.285E+03   0.169E+04 0.476E+03 0.286E+03   0.136E+01 0.544E+00 -.718E+00   0.312E-02 0.708E-02 -.333E-02
   -.140E+04 -.130E+04 0.120E+03   0.139E+04 0.130E+04 -.119E+03   0.292E+01 0.324E+01 -.857E+00   0.234E-03 -.744E-03 0.237E-02
   -.132E+04 -.148E+03 -.128E+04   0.131E+04 0.148E+03 0.128E+04   0.186E+01 -.152E-02 0.180E+01   0.603E-02 0.739E-04 -.143E-02
   -.154E+04 -.674E+03 0.914E+03   0.154E+04 0.673E+03 -.912E+03   0.332E+01 0.191E+01 -.157E+01   -.498E-02 -.230E-02 0.263E-02
   -.123E+04 0.132E+04 0.448E+03   0.123E+04 -.131E+04 -.448E+03   0.299E+01 -.130E+01 -.711E+00   -.153E-02 0.144E-02 0.229E-02
   -.132E+04 0.224E+03 0.133E+04   0.132E+04 -.222E+03 -.132E+04   0.275E+01 -.153E+01 -.203E+01   0.482E-03 0.207E-02 -.422E-02
   -.912E+03 0.970E+03 -.125E+04   0.910E+03 -.968E+03 0.125E+04   0.191E+01 -.139E+01 0.160E+01   0.475E-02 -.149E-02 0.187E-02
   -.114E+04 -.123E+04 -.834E+03   0.114E+04 0.122E+04 0.832E+03   0.177E+01 0.128E+01 0.174E+01   -.421E-02 -.421E-02 -.624E-02
   -.851E+03 0.119E+04 0.125E+04   0.849E+03 -.118E+04 -.124E+04   0.259E+01 -.292E+01 -.299E+01   -.330E-02 0.321E-02 -.153E-02
   -.898E+03 0.525E+03 -.277E+03   0.897E+03 -.524E+03 0.276E+03   0.130E+01 -.731E+00 0.722E+00   0.404E-02 -.968E-03 -.199E-02
   -.615E+03 -.810E+03 -.161E+04   0.614E+03 0.808E+03 0.161E+04   0.130E+01 0.257E+01 0.434E+01   -.126E-02 0.389E-04 0.127E-02
   -.824E+03 -.447E+03 0.266E+03   0.823E+03 0.447E+03 -.265E+03   0.109E+01 0.513E+00 -.645E+00   0.869E-02 0.411E-02 0.130E-01
   -.582E+03 0.559E+03 0.638E+03   0.582E+03 -.558E+03 -.637E+03   0.264E+00 -.976E+00 -.818E+00   0.347E-02 0.108E-01 -.393E-02
   -.745E+03 -.143E+04 0.853E+03   0.745E+03 0.143E+04 -.853E+03   0.361E+00 0.245E+01 -.382E+00   -.611E-03 -.679E-02 0.207E-02
   -.255E+03 0.169E+04 0.420E+03   0.254E+03 -.169E+04 -.419E+03   0.801E+00 -.119E+01 -.109E+01   -.126E-01 0.866E-02 0.215E-02
   -.754E+03 -.710E+03 0.151E+04   0.753E+03 0.710E+03 -.151E+04   0.151E+01 0.666E+00 -.126E+01   -.765E-03 0.340E-03 -.277E-02
   -.350E+03 0.187E+03 -.173E+04   0.350E+03 -.187E+03 0.172E+04   0.298E+00 -.226E+00 0.159E+01   0.263E-02 -.330E-02 0.234E-02
   -.357E+03 0.169E+04 -.446E+03   0.357E+03 -.168E+04 0.444E+03   -.398E+00 -.201E+01 0.175E+01   0.233E-03 -.376E-02 0.638E-02
   -.527E+03 -.171E+04 -.270E+03   0.525E+03 0.171E+04 0.271E+03   0.117E+01 0.148E+01 -.437E+00   0.193E-02 0.243E-02 -.223E-02
   -.444E+03 -.382E+03 -.739E+03   0.443E+03 0.381E+03 0.738E+03   0.813E+00 0.109E+01 0.110E+01   -.161E-02 -.476E-02 0.356E-02
   -.126E+04 0.133E+04 -.399E+03   0.126E+04 -.133E+04 0.398E+03   0.338E+01 -.402E+01 0.663E+00   -.341E-03 0.478E-02 -.345E-02
   -.349E+03 0.365E+03 0.173E+04   0.349E+03 -.364E+03 -.173E+04   0.615E-01 -.742E+00 -.218E+01   0.166E-04 0.479E-03 0.152E-03
   -.375E+02 0.115E+04 -.148E+04   0.371E+02 -.115E+04 0.147E+04   0.369E+00 -.456E+01 0.372E+01   0.291E-02 -.393E-02 -.300E-02
   0.863E+01 0.781E+03 -.829E+03   -.822E+01 -.781E+03 0.828E+03   -.418E+00 0.880E-01 0.137E+01   -.316E-02 -.140E-03 0.180E-02
   -.653E+02 -.145E+04 -.108E+04   0.657E+02 0.145E+04 0.108E+04   -.416E+00 0.154E+01 0.855E+00   0.958E-03 -.275E-02 0.208E-02
   0.550E+02 0.243E+03 -.902E+02   -.551E+02 -.243E+03 0.904E+02   0.122E+00 -.101E+00 -.193E+00   0.695E-03 -.691E-02 0.211E-02
   0.148E+03 0.124E+04 0.138E+04   -.148E+03 -.123E+04 -.138E+04   -.240E+00 -.226E+01 -.196E+01   -.320E-02 -.159E-02 -.868E-03
   0.425E+03 -.522E+03 -.170E+04   -.424E+03 0.521E+03 0.169E+04   -.866E+00 0.111E+01 0.236E+01   0.196E-02 -.412E-02 -.799E-02
   0.663E+02 -.925E+03 0.148E+03   -.658E+02 0.923E+03 -.147E+03   -.497E+00 0.137E+01 -.329E+00   0.229E-02 -.226E-02 -.514E-02
   0.806E+02 -.239E+03 0.916E+03   -.804E+02 0.238E+03 -.914E+03   -.192E+00 0.891E+00 -.158E+01   -.530E-02 -.122E-02 -.284E-02
   0.504E+03 0.152E+04 -.351E+03   -.504E+03 -.152E+04 0.351E+03   0.477E+00 -.261E+00 0.116E+00   -.175E-02 0.689E-02 -.116E-02
   0.833E+03 0.413E+03 -.156E+04   -.831E+03 -.412E+03 0.156E+04   -.191E+01 -.118E+01 0.154E+01   0.645E-02 -.267E-02 0.658E-02
   0.862E+03 0.140E+04 -.985E+03   -.859E+03 -.139E+04 0.983E+03   -.268E+01 -.417E+01 0.211E+01   0.841E-03 -.296E-03 -.206E-02
   0.133E+03 -.187E+04 0.470E+03   -.134E+03 0.187E+04 -.468E+03   0.239E+00 0.508E+01 -.165E+01   0.190E-03 0.111E-02 -.251E-02
   0.559E+03 -.450E+03 -.722E+03   -.558E+03 0.450E+03 0.720E+03   -.748E+00 0.757E+00 0.129E+01   0.401E-02 0.691E-02 0.204E-02
   0.210E+03 -.134E+04 0.128E+04   -.210E+03 0.134E+04 -.128E+04   -.213E+00 0.160E+01 -.129E+01   -.642E-03 -.161E-02 -.256E-02
   0.517E+03 0.716E+03 0.518E+03   -.516E+03 -.715E+03 -.517E+03   -.113E+01 -.116E+01 -.918E+00   -.302E-02 -.360E-02 -.330E-02
   0.227E+03 -.531E+03 0.183E+04   -.226E+03 0.530E+03 -.182E+04   -.515E+00 0.174E+01 -.520E+01   -.469E-02 -.144E-02 -.172E-02
   0.112E+04 0.644E+03 -.667E+03   -.112E+04 -.644E+03 0.667E+03   -.276E+00 0.199E+00 0.264E+00   0.466E-02 -.322E-02 0.566E-02
   0.641E+03 -.169E+04 -.416E+03   -.640E+03 0.168E+04 0.415E+03   -.780E+00 0.290E+01 0.923E+00   0.362E-04 0.259E-03 0.981E-03
   0.789E+03 0.298E+03 0.161E+04   -.788E+03 -.297E+03 -.161E+04   -.860E+00 -.507E+00 -.180E+01   -.166E-02 -.162E-02 -.381E-02
   0.984E+03 -.117E+04 -.119E+04   -.981E+03 0.116E+04 0.119E+04   -.277E+01 0.287E+01 0.324E+01   0.411E-02 0.563E-03 -.319E-02
   0.954E+03 -.211E+03 0.201E+03   -.953E+03 0.210E+03 -.200E+03   -.147E+01 0.573E+00 -.559E+00   -.292E-02 -.346E-02 -.173E-02
   0.677E+03 0.174E+04 0.355E+03   -.675E+03 -.174E+04 -.354E+03   -.190E+01 -.482E+01 -.849E+00   -.691E-02 0.311E-02 0.521E-02
   0.149E+04 -.599E+02 -.119E+04   -.149E+04 0.599E+02 0.119E+04   -.325E+01 0.435E-01 0.255E+01   0.113E-01 0.233E-02 0.323E-02
   0.151E+04 0.110E+04 -.109E+03   -.151E+04 -.110E+04 0.109E+03   -.274E+01 -.167E+01 0.577E+00   0.225E-02 0.446E-02 -.838E-03
   0.107E+04 -.142E+04 0.543E+03   -.107E+04 0.142E+04 -.543E+03   -.128E+01 0.170E+01 -.463E+00   -.177E-02 -.316E-02 -.290E-02
   0.113E+04 -.681E+03 0.130E+04   -.113E+04 0.680E+03 -.130E+04   -.159E+01 0.918E+00 -.155E+01   -.702E-03 -.338E-02 -.293E-02
   0.163E+04 0.262E+03 0.800E+03   -.162E+04 -.261E+03 -.799E+03   -.214E+01 -.277E+00 -.479E+00   0.449E-02 -.386E-02 -.353E-02
   0.152E+04 -.968E+03 -.419E+03   -.152E+04 0.968E+03 0.418E+03   -.240E+01 0.397E+00 0.990E+00   0.113E-02 0.222E-02 -.110E-02
   0.183E+04 0.228E+03 -.363E+03   -.183E+04 -.227E+03 0.362E+03   -.395E+01 -.856E+00 0.794E+00   -.246E-02 0.103E-02 0.345E-02
   0.174E+04 -.673E+03 0.477E+03   -.173E+04 0.671E+03 -.476E+03   -.475E+01 0.190E+01 -.121E+01   0.124E-02 0.922E-04 -.515E-03
   0.121E+04 0.103E+04 0.106E+04   -.121E+04 -.103E+04 -.106E+04   -.314E+01 -.302E+01 -.250E+01   -.170E-02 0.107E-02 0.198E-02
   0.805E+00 0.396E+01 -.420E-01   0.250E-11 -.273E-11 -.909E-12   -.804E+00 -.403E+01 -.942E-01   0.134E-01 -.537E-03 -.146E-01

 POSITION                                       TOTAL-FORCE (eV/Angst)
     17.16697     10.72456     14.11846        -0.002391     -0.010019      0.009126
     16.37861     11.31342     10.95038        -0.001765     -0.000365      0.001102
     16.46098     13.16887     13.14027        -0.015640      0.001044     -0.004341
     15.85089     15.50693     11.87053        -0.000912     -0.011308      0.003310
     15.64038     12.39503     15.73646        -0.006339     -0.001314      0.004147
     16.11325     13.81694      9.56431         0.006208      0.000322     -0.001600
     15.26656      8.54582     10.94951         0.016684     -0.000017      0.002785
     15.38921     11.40194      8.27269        -0.003159     -0.002673      0.006086
     14.77069      9.61208     15.62377        -0.007277      0.000125      0.001174
     15.11606     15.19885     14.59620         0.006002      0.002810      0.000251
     14.17775      8.73227      8.25688         0.005459     -0.002250     -0.002755
     14.57460     10.69030     12.99785         0.001084      0.003495     -0.000305
     13.86914     14.23076     16.90770        -0.003493      0.006196      0.000759
     14.17767     13.13617     11.40744         0.002092     -0.003850     -0.024202
     13.50338     10.58504     10.19365        -0.006704     -0.008796      0.006361
     13.82904     15.61299      9.95423         0.000925      0.002190      0.000448
     12.57916      7.84861     10.48486         0.005594     -0.017845     -0.003842
     13.76618     13.69813      7.90648         0.006265      0.001236      0.003589
     13.12558     11.57160     16.91985        -0.005884      0.004348     -0.004179
     13.44639      8.04729     13.16644         0.003470      0.004198     -0.005424
     13.35784     16.43429     12.79485         0.004440     -0.001386      0.002980
     13.29844     13.01827     14.28644         0.002045      0.010895     -0.010713
     16.15261      8.24633     13.57384        -0.004689     -0.001177      0.004538
     12.75966     11.00599      7.30776         0.004976     -0.000068      0.001199
     12.27927      8.93802     16.96462        -0.008930      0.007077      0.003148
     12.17046     10.19714     14.54108        -0.007003      0.001950     -0.001790
     12.21685     15.64527     15.18217        -0.005752     -0.002299      0.002805
     11.89567     11.64033     12.20634         0.001988     -0.000699      0.000223
     11.32564      8.63913      8.01665         0.005851      0.005398      0.004079
     11.10318     13.58322     16.80410        -0.001728      0.007939      0.007564
     11.72409     14.46465     11.59559         0.001092      0.001565      0.002900
     11.62748     12.59876      9.43775         0.006938      0.002671      0.002647
     10.74395      8.46800     12.60627        -0.001606     -0.006567     -0.005318
     10.28188     11.00362     16.46129        -0.005308      0.009768     -0.012352
     10.02585      8.44759     15.28373         0.000859      0.002001     -0.000610
     11.54307     17.18335     10.76584         0.002498      0.003764      0.004390
     10.53589     13.37942     14.01512        -0.007898     -0.004474      0.012467
     11.34576     15.34563      8.63672         0.002542      0.000895      0.004695
     10.48514     10.11059     10.26326        -0.000189      0.000303      0.005660
     11.24677     13.33179      6.70837         0.002820      0.002103      0.001232
      9.43710     10.71493     13.64717         0.002422     -0.009433     -0.008261
     10.34606     16.30338     13.16781        -0.005149     -0.000533      0.007535
      9.83229     11.08698      7.57182         0.003301      0.002466      0.007755
      9.29013     15.33859     15.59613        -0.002195     -0.006420     -0.002627
      9.44607     12.68791     11.33784        -0.000629      0.008381     -0.003067
      9.87963      7.26788     10.28192         0.020465      0.002307     -0.006088
      8.20847     12.64927     15.33270        -0.015909     -0.002716     -0.010342
      8.13997      9.25885     11.55327         0.003440     -0.008126     -0.007529
      9.22551     15.56822     10.59447        -0.002661      0.002330      0.002227
      9.01936     13.63410      8.51402         0.003403      0.003668      0.002992
      7.69380     11.31940      9.60885         0.001180     -0.003342      0.002745
      8.06665     14.55800     13.09284        -0.001421     -0.001121      0.000444
      7.12044     11.82810     12.59608        -0.003552     -0.002928     -0.008871
      6.98121     13.85929     10.54553         0.001396      0.003222     -0.000144
      8.47757      8.89236      8.57602         0.002745      0.005060      0.000996
    total drift:                                0.014424     -0.064168     -0.150856

  FREE ENERGIE OF THE ION-ELECTRON SYSTEM (eV)
  free  energy   TOTEN  =      -122.54766095 eV

  energy  without entropy=     -122.54766095  energy(sigma->0) =     -122.54766095

 d Force =-0.4813952E-04[-0.138E-03, 0.417E-04]  d Energy =-0.1266866E-03 0.785E-04
 d Force =-0.1855284E+01[-0.185E+01,-0.186E+01]  d Ewald  =-0.1855283E+01-0.102E-05

 reached required accuracy - stopping structural energy minimisation