 vasp.5.3.5 31Mar14 (build Feb 01 2018 12:10:03) gamma-only

 executed on             LinuxIFC date 2019.03.25  01:23:51

 INCAR:
 POTCAR:    PAW_PBE Ag 02Apr2005
 POTCAR:    PAW_PBE Ag 02Apr2005
   VRHFIN =Ag : s1 d10

   TITEL  = PAW_PBE Ag 02Apr2005
   POMASS =  107.868; ZVAL   =   11.000    mass and valenz
   ENMAX  =  249.844; ENMIN  =  187.383 eV

  PAW_PBE Ag 02Apr2005                  :

 POSCAR: Pt50, -257.15717405 <s> Ag </s>
  positions in direct lattice
 exchange correlation table for  LEXCH =        8
   RHO(1)=    0.500       N(1)  =     2000
   RHO(2)=  100.500       N(2)  =     4000

 ion  position               nearest neighbor table
   1  0.585  0.609  0.362-   2 2.67  10 2.70  17 2.77   3 2.84   6 2.84   4 2.89  19 2.98   8 3.11

   2  0.620  0.508  0.309-   1 2.67   9 2.72   7 2.74   4 2.74   6 2.77   8 3.37
   3  0.655  0.670  0.449-  19 2.72  10 2.74   5 2.75   1 2.84  12 2.84  25 2.92   4 3.05
   4  0.697  0.552  0.394-  19 2.71   2 2.74   5 2.75   9 2.86  13 2.86   1 2.89   3 3.05
   5  0.741  0.597  0.500-  14 2.70   3 2.75   4 2.75  12 2.77  13 2.79  19 2.96
   6  0.498  0.533  0.306-   2 2.77   8 2.79  15 2.79  16 2.83  17 2.84   1 2.84   7 2.95
   7  0.546  0.414  0.339-   8 2.74  20 2.74   2 2.74   9 2.79  21 2.83  15 2.86   6 2.95
   8  0.523  0.500  0.424-  23 2.69  18 2.74   7 2.74  35 2.76  19 2.77   6 2.79  15 2.82   1 3.11
                             2 3.37  17 3.39   9 3.44
   9  0.657  0.430  0.395-   2 2.72  11 2.76   7 2.79  13 2.82  21 2.83   4 2.86  18 2.92   8 3.44

  10  0.548  0.714  0.409-   1 2.70  17 2.70  25 2.72  22 2.72   3 2.74
  11  0.689  0.355  0.488-  21 2.74  28 2.75   9 2.76  13 2.77  24 2.81  18 2.97
  12  0.664  0.659  0.575-  34 2.75   5 2.77  14 2.81  37 2.81  25 2.81   3 2.84  26 2.99  19 3.22

[...]

  18  0.594  0.445  0.508-  19 2.66  31 2.67   8 2.74  35 2.80  28 2.82  24 2.85  21 2.88   9 2.92
                            11 2.97  13 3.03  14 3.59
  19  0.614  0.560  0.483-  18 2.66  26 2.68   4 2.71   3 2.72   8 2.77   5 2.96   1 2.98  14 3.08
                            13 3.15  12 3.22  31 3.48
  20  0.465  0.339  0.394-  30 2.70  15 2.70  21 2.71   7 2.74  27 2.76
  21  0.579  0.339  0.436-  20 2.71  11 2.74   9 2.83   7 2.83  24 2.84  18 2.88  30 2.88
  22  0.451  0.698  0.481-  36 2.66  10 2.72  17 2.74  25 2.80  32 2.83  29 2.85  23 2.87  26 3.47

  23  0.451  0.569  0.491-   8 2.69  40 2.70  26 2.76  35 2.84  22 2.87  33 2.89  17 2.89  29 2.98
                            38 3.00
  24  0.591  0.330  0.562-  44 2.76  30 2.79  11 2.81  28 2.83  21 2.84  18 2.85  41 2.89
  25  0.565  0.722  0.529-  10 2.72  34 2.74  26 2.78  22 2.80  12 2.81  32 2.85   3 2.92
  26  0.542  0.605  0.568-  19 2.68  40 2.69  31 2.74  23 2.76  25 2.78  32 2.92  12 2.99  37 3.01
                            34 3.09  45 3.13  22 3.47
  27  0.377  0.391  0.463-  42 2.75  35 2.76  20 2.76  33 2.78  15 2.79  30 2.87  43 2.91
  28  0.680  0.414  0.595-  11 2.75  14 2.78  39 2.79  18 2.82  24 2.83  13 2.86  41 2.88  31 3.23

[...]

  39  0.661  0.484  0.698-  14 2.71  41 2.75  47 2.75  37 2.75  28 2.79  31 2.96
  40  0.449  0.540  0.609-  48 2.66  31 2.68  26 2.69  46 2.69  23 2.70  50 2.81  35 2.86  38 3.06
                            45 3.06  49 3.14  47 3.55
  41  0.581  0.392  0.675-  31 2.68  44 2.70  39 2.75  49 2.88  28 2.88  24 2.89  47 3.07
  42  0.305  0.454  0.541-  33 2.69  38 2.71  43 2.71  48 2.74  27 2.75
  43  0.391  0.387  0.593-  35 2.71  42 2.71  44 2.74  49 2.80  48 2.86  27 2.91  30 2.92
  44  0.490  0.325  0.633-  30 2.68  41 2.70  49 2.71  43 2.74  24 2.76
  45  0.502  0.628  0.700-  50 2.73  34 2.77  37 2.79  32 2.80  47 2.85  46 2.92  40 3.06  26 3.13

[...]

  50  0.426  0.537  0.733-  49 2.72  47 2.73  45 2.73  48 2.75  46 2.80  40 2.81

  LATTYP: Found a simple cubic cell.
 ALAT       =    22.3072865982

  Lattice vectors:

 A1 = (  22.3072865982,   0.0000000000,   0.0000000000)
 A2 = (   0.0000000000,  22.3072865982,   0.0000000000)
 A3 = (   0.0000000000,   0.0000000000,  22.3072865982)

Analysis of symmetry for initial positions (statically):
 Subroutine PRICEL returns:
 Original cell was already a primitive cell.

 Routine SETGRP: Setting up the symmetry group for a
 simple cubic supercell.

 Subroutine GETGRP returns: Found  1 space group operations
 (whereof  1 operations were pure point group operations)
 out of a pool of 48 trial point group operations.

The static configuration has the point symmetry C_1 .

Analysis of symmetry for dynamics (positions and initial velocities):
 Subroutine PRICEL returns:
 Original cell was already a primitive cell.

 Routine SETGRP: Setting up the symmetry group for a
 simple cubic supercell.

 Subroutine GETGRP returns: Found  1 space group operations
 (whereof  1 operations were pure point group operations)
 out of a pool of 48 trial point group operations.

The dynamic configuration has the point symmetry C_1 .

Analysis of magnetic symmetry:
 Subroutine PRICEL returns:
 Original cell was already a primitive cell.

 Subroutine MAGSYM returns: Found  1 space group operations
 (whereof  1 operations were pure point group operations)
 out of a pool of  1 trial space group operations
 (whereof  1 operations were pure point group operations)
 and found also     1 'primitive' translations

The magnetic configuration has the point symmetry C_1 .

 KPOINTS: Gamma-point only
  k-points in reciprocal lattice
Space group operators:
 irot       det(A)        alpha          n_x          n_y          n_z        tau_x        tau_y        tau_z
    1     1.000000     0.000000     1.000000     0.000000     0.000000     0.000000     0.000000     0.000000

 I would recommend the setting:
   dimension x,y,z NGX =    86 NGY =   86 NGZ =   86
 SYSTEM =  unknown system
 POSCAR =  Pt50, -257.15717405 <s> Ag </s>

 Startparameter for this run:
   NWRITE =      2    write-flag & timer
   PREC   = normal    normal or accurate (medium, high low for compatibility)
   ISTART =      0    job   : 0-new  1-cont  2-samecut
   ICHARG =      2    charge: 1-file 2-atom 10-const
   ISPIN  =      2    spin polarized calculation?
   LNONCOLLINEAR =      F non collinear calculations
   LSORBIT =      F    spin-orbit coupling
   INIWAV =      1    electr: 0-lowe 1-rand  2-diag
   LASPH  =      F    aspherical Exc in radial PAW
   METAGGA=      F    non-selfconsistent MetaGGA calc.

 Electronic Relaxation 1
   ENCUT  =  249.8 eV  18.36 Ry    4.29 a.u.  28.75 28.75 28.75*2*pi/ulx,y,z
   ENINI  =  249.8     initial cutoff
   ENAUG  =  412.5 eV  augmentation charge cutoff
   NELM   =     60;   NELMIN=  2; NELMDL= -5     # of ELM steps
   EDIFF  = 0.1E-03   stopping-criterion for ELM
   LREAL  =      F    real-space projection
   NLSPLINE    = F    spline interpolate recip. space projectors
   LCOMPAT=      F    compatible to vasp.4.4
   GGA_COMPAT  = T    GGA compatible to vasp.4.4-vasp.4.6
   LMAXPAW     = -100 max onsite density
   LMAXMIX     =    2 max onsite mixed and CHGCAR
   VOSKOWN=      0    Vosko Wilk Nusair interpolation
   ROPT   =    0.00000
 Ionic relaxation
   EDIFFG = 0.1E-02   stopping-criterion for IOM
   NSW    =   1000    number of steps for IOM
   NBLOCK =      1;   KBLOCK =   1000    inner block; outer block
   IBRION =      2    ionic relax: 0-MD 1-quasi-New 2-CG
   NFREE  =      1    steps in history (QN), initial steepest desc. (CG)
   ISIF   =      2    stress and relaxation
   IWAVPR =     11    prediction:  0-non 1-charg 2-wave 3-comb
   ISYM   =      2    0-nonsym 1-usesym 2-fastsym
   LCORR  =      T    Harris-Foulkes like correction to forces

   POTIM  = 0.1000    time-step for ionic-motion
   TEIN   =    0.0    initial temperature
   TEBEG  =    0.0;   TEEND  =   0.0 temperature during run
   SMASS  =  -3.00    Nose mass-parameter (am)
   estimated Nose-frequenzy (Omega)   =  0.10E-29 period in steps =****** mass=  -0.114E-25a.u.
   SCALEE = 1.0000    scale energy and forces
   NPACO  =    256;   APACO  = 16.0  distance and # of slots for P.C.
   PSTRESS=    0.0 pullay stress

  Mass of Ions in am
   POMASS = 107.87
  Ionic Valenz
   ZVAL   =  11.00
  Atomic Wigner-Seitz radii
  virtual crystal weights
   VCA    =   1.00
   NELECT =     550.0000    total number of electrons
   NUPDOWN=      -1.0000    fix difference up-down

 DOS related values:
   EMIN   =  10.00;   EMAX   =-10.00  energy-range for DOS
   EFERMI =   0.00
   ISMEAR =     0;   SIGMA  =   0.00  broadening in eV -4-tet -1-fermi 0-gaus

 Electronic relaxation 2 (details)
   IALGO  =     38    algorithm
   LDIAG  =      T    sub-space diagonalisation (order eigenvalues)
   LSUBROT=      F    optimize rotation matrix (better conditioning)
   TURBO    =      0    0=normal 1=particle mesh
   IRESTART =      0    0=no restart 2=restart with 2 vectors
   NREBOOT  =      0    no. of reboots
   NMIN     =      0    reboot dimension
   EREF     =   0.00    reference energy to select bands
   IMIX   =      4    mixing-type and parameters
     AMIX     =   0.40;   BMIX     =  1.00
     AMIX_MAG =   1.60;   BMIX_MAG =  1.00
     AMIN     =   0.10
     WC   =   100.;   INIMIX=   1;  MIXPRE=   1;  MAXMIX= -45

 Intra band minimization:
   WEIMIN = 0.0010     energy-eigenvalue tresh-hold
   EBREAK =  0.70E-07  absolut break condition
   DEPER  =   0.30     relativ break condition

   TIME   =   0.40     timestep for ELM

  volume/ion in A,a.u.               =     222.01      1498.19
  Fermi-wavevector in a.u.,A,eV,Ry     =   0.601288  1.136269  4.919144  0.361547
  Thomas-Fermi vector in A             =   1.653465

 Write flags
   LWAVE  =      F    write WAVECAR
   LCHARG =      F    write CHGCAR
   LVTOT  =      F    write LOCPOT, total local potential
   LVHAR  =      F    write LOCPOT, Hartree potential only
   LELF   =      F    write electronic localiz. function (ELF)
   LORBIT =      0    0 simple, 1 ext, 2 COOP (PROOUT)

 Dipole corrections
   LMONO  =      F    monopole corrections only (constant potential shift)
   LDIPOL =      F    correct potential (dipole corrections)
   IDIPOL =      0    1-x, 2-y, 3-z, 4-all directions
   EPSILON=  1.0000000 bulk dielectric constant

 Exchange correlation treatment:
   GGA     =    PE    GGA type
   VOSKOWN=      0    Vosko Wilk Nusair interpolation
   LHFCALC =     F    Hartree Fock is set to
   LHFONE  =     F    Hartree Fock one center treatment
   AEXX    =    0.0000 exact exchange contribution

 Linear response parameters
   LEPSILON=     F    determine dielectric tensor
   LRPA    =     F    only Hartree local field effects (RPA)
   LNABLA  =     F    use nabla operator in PAW spheres
   LVEL    =     F    velocity operator in full k-point grid
   LINTERFAST=   F  fast interpolation
   KINTER  =     0    interpolate to denser k-point grid
   CSHIFT  =0.1000    complex shift for real part using Kramers Kronig
   OMEGAMAX=  -1.0    maximum frequency
   DEG_THRESHOLD= 0.2000000E-02 threshold for treating states as degnerate
   RTIME   =    0.100 relaxation time in fs

 Orbital magnetization related:
   ORBITALMAG=     F  switch on orbital magnetization
   LCHIMAG   =     F  perturbation theory with respect to B field
   DQ        =  0.001000  dq finite difference perturbation B field

[...]
      16 -81.7988      17 -82.1226      18 -82.2858      19 -82.2407      20 -81.8094
      21 -82.0130      22 -82.0689      23 -82.0486      24 -82.0310      25 -82.0430
      26 -82.3189      27 -82.0350      28 -82.1871      29 -82.0397      30 -82.0702
      31 -82.2345      32 -82.0200      33 -82.1846      34 -82.0087      35 -82.0298
      36 -81.8212      37 -82.1849      38 -82.0780      39 -82.0752      40 -82.1793
      41 -82.0651      42 -81.8044      43 -82.1181      44 -81.8056      45 -82.0529
      46 -81.9602      47 -82.1669      48 -82.0619      49 -82.0332      50 -82.0253

 E-fermi :  -3.4956     XC(G=0):  -1.5138     alpha+bet : -1.0339

[...]

 spin component 2

 k-point     1 :       0.0000    0.0000    0.0000
  band No.  band energies     occupation
      1      -9.5282      1.00000
      2      -9.0630      1.00000
      3      -8.9621      1.00000
      4      -8.9503      1.00000
      5      -8.8887      1.00000
      6      -8.8701      1.00000
      7      -8.8589      1.00000
      8      -8.8441      1.00000
      9      -8.8005      1.00000
     10      -8.7857      1.00000
     11      -8.7602      1.00000
     12      -8.7441      1.00000
     13      -8.7325      1.00000
     14      -8.7095      1.00000
     15      -8.6756      1.00000
     16      -8.6677      1.00000
     17      -8.6541      1.00000
     18      -8.6276      1.00000
     19      -8.6237      1.00000
     20      -8.6101      1.00000
     21      -8.6056      1.00000
     22      -8.5965      1.00000
     23      -8.5783      1.00000
     24      -8.5664      1.00000
     25      -8.5532      1.00000
     26      -8.5349      1.00000
     27      -8.5188      1.00000
     28      -8.5110      1.00000
     29      -8.4920      1.00000
     30      -8.4903      1.00000
     31      -8.4803      1.00000
     32      -8.4679      1.00000
     33      -8.4567      1.00000
     34      -8.4482      1.00000
     35      -8.4384      1.00000
     36      -8.4142      1.00000
     37      -8.3909      1.00000
     38      -8.3811      1.00000
     39      -8.3700      1.00000
     40      -8.3646      1.00000
     41      -8.3494      1.00000
     42      -8.3414      1.00000
     43      -8.3371      1.00000
     44      -8.3206      1.00000
     45      -8.3128      1.00000
     46      -8.3093      1.00000
     47      -8.2928      1.00000
     48      -8.2881      1.00000
     49      -8.2781      1.00000
     50      -8.2632      1.00000
     51      -8.2352      1.00000
     52      -8.2217      1.00000
     53      -8.2097      1.00000
     54      -8.1980      1.00000
     55      -8.1882      1.00000
     56      -8.1668      1.00000
     57      -8.1552      1.00000
     58      -8.1398      1.00000
     59      -8.1283      1.00000
     60      -8.1129      1.00000
[...]
    342       1.3907      0.00000
    343       1.4219      0.00000
    344       1.4741      0.00000
    345       1.4957      0.00000
    346       1.5159      0.00000
    347       1.5206      0.00000
    348       1.5640      0.00000
    349       1.5700      0.00000
    350       1.6160      0.00000
    351       1.6252      0.00000
    352       1.6491      0.00000
    353       1.6688      0.00000
    354       1.6962      0.00000
    355       1.7356      0.00000
    356       1.7512      0.00000

[...]

 soft charge-density along one line, spin component           2
         0         1         2         3         4         5         6         7         8         9
 total charge-density along one line

------------------------ aborting loop because EDIFF is reached ----------------------------------------

  FORCE on cell =-STRESS in cart. coord.  units (eV):
  Direction    XX          YY          ZZ          XY          YZ          ZX
  Alpha Z   191.56402   191.56402   191.56402
  Ewald   43906.33627 46948.58855 49117.90908 -1512.53752  2208.77762 -2666.60299
  Hartree 60669.40343 63580.60689 65608.58882 -1401.71822  2048.04363 -2465.73976
  E(xc)   -2899.94713 -2899.86211 -2899.48092    -0.19383     0.30722    -0.37951
  Local  ************************************  2913.88984 -4257.29910  5130.69637
  n-local  -509.80027  -510.32642  -508.28585    -0.94861     1.08901    -1.06630
  augment  4595.47533  4594.60573  4593.88775     0.44101    -0.21726     1.05626
  Kinetic  6842.78252  6841.49822  6839.84858     0.68540    -0.70532     2.05379
  Fock        0.00000     0.00000     0.00000     0.00000     0.00000     0.00000
  Total     -17.84367   -18.48289   -17.50680    -0.38192    -0.00420     0.01786
  in kB      -2.57546    -2.66772    -2.52684    -0.05512    -0.00061     0.00258

 VOLUME and BASIS-vectors are now :
  energy-cutoff  :      249.84
  volume of cell :    11100.44
      direct lattice vectors                 reciprocal lattice vectors
    22.307286598  0.000000000  0.000000000     0.044828401  0.000000000  0.000000000
     0.000000000 22.307286598  0.000000000     0.000000000  0.044828401  0.000000000
     0.000000000  0.000000000 22.307286598     0.000000000  0.000000000  0.044828401

  length of vectors
    22.307286598 22.307286598 22.307286598     0.044828401  0.044828401  0.044828401

 FORCES acting on ions
    electron-ion (+dipol)            ewald-force                    non-local-force                 convergence-correction
   -.502E+03 -.866E+03 0.141E+04   0.501E+03 0.865E+03 -.140E+04   0.859E+00 0.118E+01 -.245E+01   -.108E-02 -.403E-02 0.646E-02
   -.740E+03 0.103E+03 0.164E+04   0.738E+03 -.103E+03 -.164E+04   0.156E+01 0.164E+00 -.404E+01   -.961E-02 0.330E-02 0.544E-02
   -.102E+04 -.122E+04 0.643E+03   0.102E+04 0.122E+04 -.642E+03   0.174E+01 0.942E+00 -.722E+00   0.179E-01 0.220E-01 0.135E-01
   -.136E+04 -.282E+03 0.104E+04   0.136E+04 0.282E+03 -.104E+04   0.226E+01 0.138E+00 -.948E+00   0.240E-01 0.128E-03 -.618E-02
   -.172E+04 -.619E+03 0.189E+03   0.172E+04 0.617E+03 -.188E+03   0.436E+01 0.186E+01 -.492E+00   0.717E-02 0.907E-02 0.401E-02
   0.310E+03 -.130E+03 0.173E+04   -.309E+03 0.130E+03 -.172E+04   -.474E+00 0.213E+00 -.401E+01   0.998E-03 -.451E-03 0.300E-02
   -.118E+03 0.925E+03 0.145E+04   0.117E+03 -.923E+03 -.145E+04   0.729E+00 -.145E+01 -.213E+01   0.803E-02 0.524E-02 -.107E-02
   -.124E+03 0.171E+02 0.815E+03   0.124E+03 -.170E+02 -.813E+03   0.809E+00 -.702E-01 -.184E+01   -.186E-01 -.128E-01 0.110E-01
   -.115E+04 0.777E+03 0.108E+04   0.115E+04 -.776E+03 -.107E+04   0.136E+01 -.113E+01 -.127E+01   0.230E-02 -.278E-02 0.120E-01
   -.127E+03 -.149E+04 0.942E+03   0.129E+03 0.148E+04 -.940E+03   -.117E+01 0.369E+01 -.254E+01   -.312E-02 0.515E-02 0.122E-01
   -.131E+04 0.130E+04 0.206E+03   0.130E+04 -.129E+04 -.206E+03   0.342E+01 -.371E+01 -.128E+00   -.120E-01 0.941E-02 -.534E-03
   -.125E+04 -.117E+04 -.439E+03   0.125E+04 0.117E+04 0.438E+03   0.233E+01 0.158E+01 0.804E+00   -.185E-02 0.349E-02 -.868E-02
   -.169E+04 0.376E+03 0.220E+03   0.169E+04 -.375E+03 -.219E+03   0.223E+01 -.289E+00 -.942E+00   -.306E-03 -.636E-02 -.100E-02
   -.159E+04 -.163E+03 -.707E+03   0.158E+04 0.162E+03 0.706E+03   0.161E+01 0.777E-01 0.651E+00   -.585E-02 0.500E-02 -.382E-02
   0.826E+03 0.593E+03 0.121E+04   -.826E+03 -.593E+03 -.121E+04   -.279E+00 -.933E-01 -.891E+00   -.390E-01 0.129E-01 0.879E-03
   0.118E+04 -.248E+03 0.134E+04   -.117E+04 0.248E+03 -.133E+04   -.349E+01 0.387E+00 -.310E+01   0.182E-02 0.609E-03 0.358E-02
   0.467E+03 -.908E+03 0.116E+04   -.467E+03 0.908E+03 -.115E+04   -.490E+00 0.524E+00 -.116E+01   -.310E-02 0.410E-02 -.443E-02
   -.490E+03 0.697E+03 0.156E+03   0.489E+03 -.695E+03 -.155E+03   0.135E+01 -.148E+01 -.423E+00   0.200E-02 -.143E-01 -.990E-02
   -.670E+03 -.361E+03 0.191E+03   0.669E+03 0.360E+03 -.190E+03   0.122E+01 0.745E+00 -.463E+00   -.126E-01 0.192E-01 0.213E-01
   0.548E+03 0.140E+04 0.955E+03   -.546E+03 -.140E+04 -.953E+03   -.189E+01 -.369E+01 -.190E+01   -.694E-02 -.138E-01 -.326E-02
   -.395E+03 0.155E+04 0.687E+03   0.394E+03 -.154E+04 -.685E+03   0.104E+01 -.237E+01 -.163E+01   0.128E-01 0.692E-02 0.172E-01
   0.569E+03 -.150E+04 0.423E+03   -.568E+03 0.150E+04 -.422E+03   -.822E+00 0.218E+01 -.668E+00   0.272E-01 -.146E-01 0.892E-02
   0.456E+03 -.485E+03 0.219E+03   -.456E+03 0.484E+03 -.219E+03   -.282E+00 0.779E+00 -.193E+00   0.287E-01 -.210E-01 0.113E-01
   -.510E+03 0.159E+04 -.430E+03   0.509E+03 -.159E+04 0.430E+03   0.107E+01 -.253E+01 0.463E+00   -.605E-02 0.181E-02 -.149E-01
   -.375E+03 -.167E+04 0.435E+02   0.374E+03 0.166E+04 -.438E+02   0.503E+00 0.251E+01 0.272E+00   0.173E-01 0.136E-01 0.726E-02
   -.125E+03 -.751E+03 -.396E+03   0.124E+03 0.750E+03 0.395E+03   0.332E+00 0.159E+01 0.111E+01   0.224E-02 0.105E-01 -.376E-01
   0.128E+04 0.114E+04 0.477E+03   -.128E+04 -.114E+04 -.476E+03   -.267E+01 -.242E+01 -.495E+00   -.145E-02 0.116E-01 -.334E-02
   -.134E+04 0.907E+03 -.708E+03   0.134E+04 -.906E+03 0.707E+03   0.223E+01 -.101E+01 0.129E+01   0.170E-02 0.627E-02 -.801E-02
   0.139E+04 -.871E+03 0.716E+03   -.139E+04 0.869E+03 -.714E+03   -.268E+01 0.186E+01 -.186E+01   -.275E-02 0.125E-01 -.482E-02
   0.411E+03 0.155E+04 0.302E+02   -.410E+03 -.155E+04 -.301E+02   -.437E+00 -.189E+01 -.988E-01   0.535E-03 -.167E-01 0.105E-01
   -.374E+03 0.258E+03 -.627E+03   0.373E+03 -.258E+03 0.626E+03   0.663E+00 -.565E+00 0.128E+01   0.259E-03 0.338E-01 -.236E-01
   0.500E+03 -.153E+04 -.635E+03   -.499E+03 0.152E+04 0.633E+03   -.827E+00 0.205E+01 0.162E+01   0.673E-02 0.182E-01 0.224E-01
   0.140E+04 0.151E+03 0.625E+03   -.140E+04 -.151E+03 -.624E+03   -.893E+00 -.582E-01 -.380E+00   0.176E-01 -.462E-01 -.376E-01
   -.503E+03 -.147E+04 -.100E+04   0.501E+03 0.147E+04 0.997E+03   0.155E+01 0.421E+01 0.228E+01   -.144E-02 0.583E-02 0.156E-02
   0.383E+03 0.516E+03 0.119E+03   -.383E+03 -.516E+03 -.119E+03   -.223E+00 -.295E+00 0.277E-02   -.103E-01 -.245E-01 0.512E-02
   0.129E+04 -.123E+04 -.164E+03   -.128E+04 0.123E+04 0.164E+03   -.312E+01 0.301E+01 -.259E+00   -.421E-02 0.278E-02 0.658E-02
   -.927E+03 -.641E+03 -.137E+04   0.926E+03 0.641E+03 0.137E+04   0.770E+00 0.661E+00 0.220E+01   -.467E-02 -.934E-03 -.577E-02
   0.154E+04 -.344E+03 -.198E+03   -.154E+04 0.344E+03 0.197E+03   -.966E+00 -.230E-01 0.568E+00   0.270E-02 0.515E-02 0.213E-01
   -.113E+04 0.329E+03 -.144E+04   0.113E+04 -.328E+03 0.144E+04   0.278E+01 -.110E+01 0.366E+01   -.460E-02 0.753E-02 -.411E-02
   0.523E+03 0.689E+01 -.668E+03   -.522E+03 -.705E+01 0.666E+03   -.936E+00 0.151E+00 0.186E+01   -.351E-02 0.155E-02 0.113E-03
   -.420E+03 0.108E+04 -.126E+04   0.420E+03 -.108E+04 0.125E+04   0.791E+00 -.631E+00 0.166E+01   -.319E-01 -.615E-02 -.167E-01
   0.168E+04 0.566E+03 -.780E+02   -.168E+04 -.565E+03 0.784E+02   -.448E+01 -.142E+01 -.425E+00   0.291E-02 -.293E-02 -.595E-02
   0.100E+04 0.107E+04 -.518E+03   -.100E+04 -.107E+04 0.518E+03   -.119E+01 -.673E+00 0.556E+00   -.299E-02 -.281E-01 0.103E-01
   0.349E+03 0.152E+04 -.829E+03   -.347E+03 -.152E+04 0.828E+03   -.203E+01 -.421E+01 0.857E+00   0.459E-02 0.528E-02 0.811E-02
   0.150E+03 -.886E+03 -.150E+04   -.149E+03 0.885E+03 0.150E+04   -.352E+00 0.133E+01 0.180E+01   -.230E-02 0.541E-02 -.382E-02
   0.116E+04 -.827E+03 -.103E+04   -.115E+04 0.826E+03 0.103E+04   -.149E+01 0.134E+01 0.199E+01   -.239E-02 0.189E-03 -.140E-02
   -.204E+03 0.128E+03 -.169E+04   0.203E+03 -.128E+03 0.169E+04   0.832E+00 0.108E+00 0.230E+01   -.193E-02 0.469E-02 -.861E-02
   0.145E+04 0.325E+03 -.991E+03   -.145E+04 -.324E+03 0.989E+03   -.314E+01 -.415E+00 0.237E+01   0.355E-02 -.435E-02 -.927E-02
   0.559E+03 0.881E+03 -.138E+04   -.558E+03 -.880E+03 0.138E+04   -.990E+00 -.109E+01 0.244E+01   -.558E-02 -.174E-01 -.161E-01
   0.751E+03 -.100E+03 -.165E+04   -.749E+03 0.100E+03 0.164E+04   -.180E+01 -.158E+00 0.419E+01   -.843E-02 0.393E-02 0.203E-02
   -.129E+01 -.543E+00 -.661E+00   0.568E-12 -.175E-11 -.909E-12   0.126E+01 0.526E+00 0.755E+00   -.156E-01 0.197E-01 -.144E-01

 POSITION                                       TOTAL-FORCE (eV/Angst)
     13.08608     13.77444      7.67156        -0.001086      0.002588     -0.012846
     13.73294     11.19832      6.68039         0.002238     -0.002153     -0.007176
     14.43331     14.90506      9.92571        -0.010407     -0.010682     -0.002689
     15.18502     12.26251      8.79559        -0.010354     -0.001924      0.000217
     16.53315     13.34545     11.04403        -0.003111     -0.002708     -0.000757
     11.00371     11.85254      6.62853         0.000849      0.001146     -0.002751
     12.14342      9.03801      7.42240         0.004338     -0.001731     -0.004938
     12.17425     11.45755      9.15624         0.007875      0.005159     -0.007306
     14.68989      9.42402      8.63385        -0.001258     -0.001768     -0.002359
     12.18555     16.12353      8.93316        -0.003040     -0.000413     -0.005706
     15.38763      7.78426     10.87938        -0.000723     -0.000501     -0.001532
     14.78810     14.74542     12.81039        -0.002893     -0.005253     -0.000177
     16.01772     10.55331     10.95218        -0.000550     -0.003044      0.000316
     15.62398     12.05224     13.37270         0.000881     -0.002948      0.002067
      9.71105     10.01308      8.31087         0.004865      0.010087      0.015150
      8.34322     12.39449      7.52286         0.000936     -0.002754      0.001291
     10.43944     13.89496      8.53670         0.000379     -0.000938     -0.002417
     13.28695      9.64334     11.10729         0.002779     -0.004574      0.000483
     13.73033     12.50316     11.20962        -0.001691     -0.008061      0.009545
     10.26611      7.31851      8.62418        -0.001292      0.000685     -0.000607
     12.89625      7.30583      9.60991         0.000625      0.000541     -0.002459
     10.06869     15.72925     10.74473        -0.013426      0.013696     -0.013271
     10.27987     12.95115     11.15722        -0.004710      0.014197      0.004906
     13.17036      7.23552     12.63888         0.001061      0.001400      0.002633
     12.62642     16.26560     11.72527        -0.009724     -0.014489     -0.005145
     12.06219     13.82017     13.03617         0.002387     -0.016020      0.006404
      8.31585      8.52223     10.33008        -0.000754      0.004298      0.000869
     15.09349      9.21685     13.33358         0.004065     -0.003323      0.001725
      7.90489     14.06746      9.87598        -0.005228      0.000518     -0.004807
     10.71398      7.46007     11.38765         0.004597      0.013072     -0.001175
     12.84061     11.10871     13.45546         0.001084     -0.009008      0.007379
     10.26281     15.89282     13.57370        -0.001032     -0.010626     -0.010138
      8.08439     11.29180     10.10677         0.002866     -0.004000     -0.002562
     12.91465     16.00364     14.59137        -0.002248     -0.002151     -0.001075
     10.61962     10.27512     11.24220         0.004608      0.015623     -0.006338
      7.79818     15.42038     12.37244        -0.003360     -0.002037     -0.002050
     13.86061     13.38949     15.19166         0.004209     -0.002709      0.005636
      7.57006     12.66674     12.41449        -0.006438      0.005329      0.007211
     14.71591     10.74067     15.69112         0.006044     -0.001410      0.004869
     10.14072     11.78238     13.77964         0.000416     -0.002499     -0.001594
     12.77191      8.78202     15.04208         0.008522     -0.007096      0.012008
      6.57002     10.01811     12.11475        -0.004304      0.001693      0.004440
      8.95476      8.97785     13.07453         0.007278      0.019204     -0.002447
     10.78981      7.10868     14.20107         0.000665      0.009267     -0.002363
     11.08976     14.09617     15.71920         0.000716     -0.001825      0.004163
      8.41552     13.97217     14.71923         0.000401     -0.001975     -0.001522
     12.00437     11.41191     16.15665         0.005660      0.000267      0.008488
      7.59391     10.93211     14.62464        -0.001992      0.005229      0.004360
     10.03946      9.46597     15.58196         0.005746      0.003408      0.002232
      9.31910     12.05492     16.53997         0.003528      0.001212      0.001814
    total drift:                               -0.041261      0.002779      0.078751

  FREE ENERGIE OF THE ION-ELECTRON SYSTEM (eV)
  free  energy   TOTEN  =      -109.23715336 eV

  energy  without entropy=     -109.23715336  energy(sigma->0) =     -109.23715336

 d Force = 0.7315016E-04[-0.219E-03, 0.365E-03]  d Energy = 0.5401627E-05 0.677E-04
 d Force = 0.9718778E+00[ 0.967E+00, 0.976E+00]  d Ewald  = 0.9718792E+00-0.139E-05

 reached required accuracy - stopping structural energy minimisation