 vasp.5.3.5 31Mar14 (build Feb 01 2018 12:10:03) gamma-only

 executed on             LinuxIFC date 2019.03.25  03:14:38

 INCAR:
 POTCAR:    PAW_PBE Ag 02Apr2005
 POTCAR:    PAW_PBE Ag 02Apr2005
   VRHFIN =Ag : s1 d10

   TITEL  = PAW_PBE Ag 02Apr2005
   POMASS =  107.868; ZVAL   =   11.000    mass and valenz
   ENMAX  =  249.844; ENMIN  =  187.383 eV

  PAW_PBE Ag 02Apr2005                  :

 POSCAR: Ti51, -342.97431753 <s> Ag </s>
  positions in direct lattice
 exchange correlation table for  LEXCH =        8
   RHO(1)=    0.500       N(1)  =     2000
   RHO(2)=  100.500       N(2)  =     4000

 ion  position               nearest neighbor table
   1  0.737  0.517  0.494-  13 2.59   4 2.66   6 2.75   8 2.79   9 2.79   5 3.01
   2  0.648  0.617  0.371-  10 2.49   3 2.57  12 2.73   5 2.78   7 2.82   9 2.86
   3  0.603  0.548  0.295-   2 2.57  11 2.67  12 2.69  16 2.73   7 2.74   5 2.80
   4  0.735  0.412  0.444-  15 2.51   6 2.59   1 2.66  13 2.73  17 2.77   5 2.82
   5  0.676  0.499  0.380-  13 2.76   2 2.78   3 2.80  12 2.80  15 2.80   4 2.82  11 2.93   1 3.01
                             9 3.41
   6  0.719  0.416  0.556-   4 2.59  13 2.65  18 2.71   8 2.73   1 2.75  17 2.85
   7  0.533  0.637  0.334-  10 2.70   3 2.74   2 2.82  12 2.83  19 2.87  16 2.96  24 3.14  36 3.16

   8  0.664  0.516  0.591-  13 2.70   6 2.73   1 2.79  14 2.85  20 2.86   9 2.88  29 2.98  18 2.98

   9  0.640  0.590  0.492-  29 2.58   1 2.79  10 2.81   2 2.86  12 2.88  13 2.88   8 2.88  14 3.17
                            22 3.22   5 3.41
  10  0.584  0.680  0.431-   2 2.49   7 2.70  19 2.74  22 2.81   9 2.81  24 2.85  12 3.28
  11  0.577  0.439  0.326-  15 2.55   3 2.67  16 2.74  21 2.83  32 2.86   5 2.93  12 2.97  28 3.36

  12  0.564  0.540  0.405-  19 2.64   3 2.69   2 2.73   5 2.80  16 2.82   7 2.83   9 2.88  11 2.97
                            29 2.99  21 3.05  13 3.10  37 3.12  10 3.28
  13  0.638  0.464  0.489-  21 2.55   1 2.59   6 2.65   8 2.70   4 2.73   5 2.76  18 2.77  29 2.85
                             9 2.88  17 2.92  12 3.10  15 3.23
  14  0.594  0.614  0.621-  22 2.57  23 2.63  26 2.76  29 2.83   8 2.85  20 3.02  25 3.03   9 3.17

[...]

  18  0.605  0.399  0.586-  31 2.61   6 2.71  13 2.77  20 2.83  17 2.87  35 2.90   8 2.98  34 3.14
                            21 3.52
  19  0.486  0.614  0.448-  24 2.29  39 2.57  12 2.64  22 2.70  10 2.74  36 2.75   7 2.87  30 2.91
                            27 2.95  29 3.01  37 3.33
  20  0.559  0.491  0.654-  34 2.68  23 2.70  38 2.78  18 2.83   8 2.86  26 2.86  29 2.94  14 3.02
                            35 3.22  43 3.30
  21  0.549  0.414  0.444-  28 2.43  13 2.55  42 2.72  35 2.74  31 2.78  11 2.83  37 2.85  15 2.96
                            12 3.05  32 3.07  17 3.09  18 3.52  29 3.52
  22  0.534  0.667  0.542-  14 2.57  27 2.60  19 2.70  10 2.81  25 2.89  26 2.93  29 2.99   9 3.22
                            24 3.23
  23  0.542  0.588  0.720-  33 2.58  14 2.63  20 2.70  26 2.76  38 2.77  25 2.86
  24  0.463  0.709  0.427-  19 2.29  10 2.85  27 2.96  30 2.96   7 3.14  22 3.23  36 3.41
  25  0.486  0.681  0.658-  26 2.50  33 2.71  23 2.86  22 2.89  40 2.93  14 3.03  27 3.05
  26  0.479  0.580  0.618-  25 2.50  43 2.66  29 2.67  14 2.76  23 2.76  40 2.79  33 2.84  39 2.85
                            20 2.86  22 2.93  27 3.01  38 3.36
  27  0.420  0.671  0.543-  30 2.53  22 2.60  40 2.66  39 2.86  19 2.95  24 2.96  26 3.01  25 3.05

[...]

  33  0.431  0.604  0.729-  40 2.57  23 2.58  38 2.69  25 2.71  49 2.74  26 2.84
  34  0.493  0.395  0.664-  45 2.64  20 2.68  44 2.72  43 2.77  38 2.83  35 2.84  18 3.14
  35  0.490  0.433  0.546-  43 2.65  31 2.69  21 2.74  29 2.76  45 2.81  34 2.84  42 2.85  18 2.90
                            48 3.01  37 3.20  20 3.22  39 3.23
  36  0.407  0.588  0.362-  30 2.65  41 2.69  16 2.75  19 2.75  47 2.83  37 3.03   7 3.16  24 3.41
                            39 3.58
  37  0.444  0.477  0.422-  32 2.67  46 2.69  41 2.70  39 2.72  47 2.78  21 2.85  16 2.91  42 2.93
                            48 2.98  36 3.03  12 3.12  35 3.20  19 3.33
  38  0.469  0.493  0.735-  33 2.69  44 2.75  23 2.77  20 2.78  43 2.83  34 2.83  49 3.06  26 3.36

  39  0.420  0.550  0.512-  19 2.57  50 2.58  30 2.69  37 2.72  48 2.82  26 2.85  27 2.86  47 2.95
                            43 3.00  29 3.02  35 3.23  36 3.58
  40  0.370  0.630  0.639-  33 2.57  27 2.66  50 2.70  49 2.77  26 2.79  25 2.93
  41  0.379  0.481  0.325-  46 2.57  16 2.68  36 2.69  37 2.70  47 2.73  32 2.82
  42  0.447  0.355  0.459-  46 2.68  31 2.69  21 2.72  32 2.81  35 2.85  37 2.93  28 2.94  48 3.07
                            45 3.39
  43  0.418  0.481  0.623-  49 2.63  44 2.65  35 2.65  26 2.66  51 2.67  45 2.71  34 2.77  38 2.83
                            50 2.85  48 2.91  39 3.00  20 3.30
  44  0.385  0.411  0.710-  51 2.64  43 2.65  34 2.72  38 2.75  45 2.75  49 2.83
  45  0.403  0.366  0.600-  34 2.64  43 2.71  48 2.74  44 2.75  51 2.76  35 2.81  42 3.39
  46  0.357  0.402  0.401-  41 2.57  42 2.68  37 2.69  32 2.76  47 2.77  48 2.80
  47  0.330  0.517  0.427-  41 2.73  46 2.77  37 2.78  48 2.79  36 2.83  30 2.89  39 2.95  50 3.40

  48  0.362  0.442  0.517-  45 2.74  47 2.79  51 2.79  46 2.80  39 2.82  50 2.83  43 2.91  37 2.98
                            35 3.01  42 3.07
  49  0.345  0.528  0.698-  43 2.63  33 2.74  51 2.75  40 2.77  44 2.83  50 2.94  38 3.06
  50  0.325  0.545  0.573-  39 2.58  40 2.70  51 2.77  48 2.83  43 2.85  49 2.94  47 3.40  30 3.47

  51  0.310  0.438  0.626-  44 2.64  43 2.67  49 2.75  45 2.76  50 2.77  48 2.79

  LATTYP: Found a simple cubic cell.
 ALAT       =    22.9245157655

  Lattice vectors:

 A1 = (  22.9245157655,   0.0000000000,   0.0000000000)
 A2 = (   0.0000000000,  22.9245157655,   0.0000000000)
 A3 = (   0.0000000000,   0.0000000000,  22.9245157655)

Analysis of symmetry for initial positions (statically):
 Subroutine PRICEL returns:
 Original cell was already a primitive cell.

 Routine SETGRP: Setting up the symmetry group for a
 simple cubic supercell.

 Subroutine GETGRP returns: Found  1 space group operations
 (whereof  1 operations were pure point group operations)
 out of a pool of 48 trial point group operations.

The static configuration has the point symmetry C_1 .

Analysis of symmetry for dynamics (positions and initial velocities):
 Subroutine PRICEL returns:
 Original cell was already a primitive cell.

 Routine SETGRP: Setting up the symmetry group for a
 simple cubic supercell.

 Subroutine GETGRP returns: Found  1 space group operations
 (whereof  1 operations were pure point group operations)
 out of a pool of 48 trial point group operations.

The dynamic configuration has the point symmetry C_1 .

Analysis of magnetic symmetry:
 Subroutine PRICEL returns:
 Original cell was already a primitive cell.

 Subroutine MAGSYM returns: Found  1 space group operations
 (whereof  1 operations were pure point group operations)
 out of a pool of  1 trial space group operations
 (whereof  1 operations were pure point group operations)
 and found also     1 'primitive' translations

The magnetic configuration has the point symmetry C_1 .

 KPOINTS: Gamma-point only
  k-points in reciprocal lattice
Space group operators:
 irot       det(A)        alpha          n_x          n_y          n_z        tau_x        tau_y        tau_z
    1     1.000000     0.000000     1.000000     0.000000     0.000000     0.000000     0.000000     0.000000

 I would recommend the setting:
   dimension x,y,z NGX =    89 NGY =   89 NGZ =   89
 SYSTEM =  unknown system
 POSCAR =  Ti51, -342.97431753 <s> Ag </s>

 Startparameter for this run:
   NWRITE =      2    write-flag & timer
   PREC   = normal    normal or accurate (medium, high low for compatibility)
   ISTART =      0    job   : 0-new  1-cont  2-samecut
   ICHARG =      2    charge: 1-file 2-atom 10-const
   ISPIN  =      2    spin polarized calculation?
   LNONCOLLINEAR =      F non collinear calculations
   LSORBIT =      F    spin-orbit coupling
   INIWAV =      1    electr: 0-lowe 1-rand  2-diag
   LASPH  =      F    aspherical Exc in radial PAW
   METAGGA=      F    non-selfconsistent MetaGGA calc.

 Electronic Relaxation 1
   ENCUT  =  249.8 eV  18.36 Ry    4.29 a.u.  29.55 29.55 29.55*2*pi/ulx,y,z
   ENINI  =  249.8     initial cutoff
   ENAUG  =  412.5 eV  augmentation charge cutoff
   NELM   =     60;   NELMIN=  2; NELMDL= -5     # of ELM steps
   EDIFF  = 0.1E-03   stopping-criterion for ELM
   LREAL  =      F    real-space projection
   NLSPLINE    = F    spline interpolate recip. space projectors
   LCOMPAT=      F    compatible to vasp.4.4
   GGA_COMPAT  = T    GGA compatible to vasp.4.4-vasp.4.6
   LMAXPAW     = -100 max onsite density
   LMAXMIX     =    2 max onsite mixed and CHGCAR
   VOSKOWN=      0    Vosko Wilk Nusair interpolation
   ROPT   =    0.00000
 Ionic relaxation
   EDIFFG = 0.1E-02   stopping-criterion for IOM
   NSW    =   1000    number of steps for IOM
   NBLOCK =      1;   KBLOCK =   1000    inner block; outer block
   IBRION =      2    ionic relax: 0-MD 1-quasi-New 2-CG
   NFREE  =      1    steps in history (QN), initial steepest desc. (CG)
   ISIF   =      2    stress and relaxation
   IWAVPR =     11    prediction:  0-non 1-charg 2-wave 3-comb
   ISYM   =      2    0-nonsym 1-usesym 2-fastsym
   LCORR  =      T    Harris-Foulkes like correction to forces

   POTIM  = 0.1000    time-step for ionic-motion
   TEIN   =    0.0    initial temperature
   TEBEG  =    0.0;   TEEND  =   0.0 temperature during run
   SMASS  =  -3.00    Nose mass-parameter (am)
   estimated Nose-frequenzy (Omega)   =  0.10E-29 period in steps =****** mass=  -0.120E-25a.u.
   SCALEE = 1.0000    scale energy and forces
   NPACO  =    256;   APACO  = 16.0  distance and # of slots for P.C.
   PSTRESS=    0.0 pullay stress

  Mass of Ions in am
   POMASS = 107.87
  Ionic Valenz
   ZVAL   =  11.00
  Atomic Wigner-Seitz radii
  virtual crystal weights
   VCA    =   1.00
   NELECT =     561.0000    total number of electrons
   NUPDOWN=      -1.0000    fix difference up-down

 DOS related values:
   EMIN   =  10.00;   EMAX   =-10.00  energy-range for DOS
   EFERMI =   0.00
   ISMEAR =     0;   SIGMA  =   0.00  broadening in eV -4-tet -1-fermi 0-gaus

 Electronic relaxation 2 (details)
   IALGO  =     38    algorithm
   LDIAG  =      T    sub-space diagonalisation (order eigenvalues)
   LSUBROT=      F    optimize rotation matrix (better conditioning)
   TURBO    =      0    0=normal 1=particle mesh
   IRESTART =      0    0=no restart 2=restart with 2 vectors
   NREBOOT  =      0    no. of reboots
   NMIN     =      0    reboot dimension
   EREF     =   0.00    reference energy to select bands
   IMIX   =      4    mixing-type and parameters
     AMIX     =   0.40;   BMIX     =  1.00
     AMIX_MAG =   1.60;   BMIX_MAG =  1.00
     AMIN     =   0.10
     WC   =   100.;   INIMIX=   1;  MIXPRE=   1;  MAXMIX= -45

 Intra band minimization:
   WEIMIN = 0.0010     energy-eigenvalue tresh-hold
   EBREAK =  0.69E-07  absolut break condition
   DEPER  =   0.30     relativ break condition

   TIME   =   0.40     timestep for ELM

[...]
      31 -82.0082      32 -82.0543      33 -81.9105      34 -81.8986      35 -82.4036
      36 -82.0842      37 -82.2682      38 -81.9132      39 -82.4230      40 -81.9676
      41 -82.0064      42 -82.1021      43 -82.3377      44 -81.9516      45 -81.9853
      46 -81.9726      47 -82.1347      48 -82.1315      49 -81.8468      50 -81.8569
      51 -81.8962

 E-fermi :  -3.2314     XC(G=0):  -1.4344     alpha+bet : -0.9717

[...]

 spin component 2

 k-point     1 :       0.0000    0.0000    0.0000
  band No.  band energies     occupation
      1      -9.7272      1.00000
      2      -9.2278      1.00000
      3      -9.0932      1.00000
      4      -9.0656      1.00000
      5      -9.0268      1.00000
      6      -9.0091      1.00000
      7      -8.9787      1.00000
      8      -8.9513      1.00000
      9      -8.9067      1.00000
     10      -8.8980      1.00000
     11      -8.8796      1.00000
     12      -8.8557      1.00000
     13      -8.8409      1.00000
     14      -8.8106      1.00000
     15      -8.7856      1.00000
     16      -8.7450      1.00000
     17      -8.7444      1.00000
     18      -8.7134      1.00000
     19      -8.7014      1.00000
     20      -8.6709      1.00000
     21      -8.6459      1.00000
     22      -8.6124      1.00000
     23      -8.6062      1.00000
     24      -8.5723      1.00000
     25      -8.5689      1.00000
     26      -8.5468      1.00000
     27      -8.5360      1.00000
     28      -8.5206      1.00000
     29      -8.5092      1.00000
     30      -8.4886      1.00000
     31      -8.4830      1.00000
     32      -8.4617      1.00000
     33      -8.4539      1.00000
     34      -8.4468      1.00000
     35      -8.4428      1.00000
     36      -8.4191      1.00000
     37      -8.4160      1.00000
     38      -8.4003      1.00000
     39      -8.3881      1.00000
     40      -8.3690      1.00000
     41      -8.3594      1.00000
     42      -8.3401      1.00000
     43      -8.3309      1.00000
     44      -8.3145      1.00000
     45      -8.3114      1.00000
     46      -8.2928      1.00000
     47      -8.2697      1.00000
     48      -8.2668      1.00000
     49      -8.2573      1.00000
     50      -8.2460      1.00000
     51      -8.2342      1.00000
     52      -8.2204      1.00000
     53      -8.2174      1.00000
     54      -8.2093      1.00000
     55      -8.1788      1.00000
     56      -8.1701      1.00000
     57      -8.1559      1.00000
     58      -8.1457      1.00000
     59      -8.1389      1.00000
     60      -8.1064      1.00000
[...]
    350       1.3969      0.00000
    351       1.4182      0.00000
    352       1.4484      0.00000
    353       1.4717      0.00000
    354       1.4837      0.00000
    355       1.4895      0.00000
    356       1.5287      0.00000
    357       1.5382      0.00000
    358       1.5612      0.00000
    359       1.5690      0.00000
    360       1.5981      0.00000
    361       1.6415      0.00000
    362       1.6680      0.00000
    363       1.6916      0.00000
    364       1.7244      0.00000

[...]

 soft charge-density along one line, spin component           2
         0         1         2         3         4         5         6         7         8         9
 total charge-density along one line

------------------------ aborting loop because EDIFF is reached ----------------------------------------

  FORCE on cell =-STRESS in cart. coord.  units (eV):
  Direction    XX          YY          ZZ          XY          YZ          ZX
  Alpha Z   183.63439   183.63439   183.63439
  Ewald   50995.70368 42287.68562 57462.04652 -1030.63830  3519.09084-11741.75463
  Hartree 67863.26347 59545.12122 74213.69777  -969.83821  3323.22056-11068.41341
  E(xc)   -2957.61706 -2958.25543 -2958.01127    -0.10798     0.20878    -0.76141
  Local  ************************************  1998.97135 -6841.58203 22811.76740
  n-local  -528.59752  -529.39115  -527.24595    -0.20461     0.58390    -3.13144
  augment  4686.23549  4687.80169  4688.29502     0.48594    -0.56252     0.86814
  Kinetic  6977.09698  6981.33303  6982.72482     1.12369    -1.11135     1.18778
  Fock        0.00000     0.00000     0.00000     0.00000     0.00000     0.00000
  Total     -17.95525   -18.32625   -18.65375    -0.20811    -0.15182    -0.23757
  in kB      -2.38782    -2.43716    -2.48071    -0.02768    -0.02019    -0.03159

 VOLUME and BASIS-vectors are now :
  energy-cutoff  :      249.84
  volume of cell :    12047.60
      direct lattice vectors                 reciprocal lattice vectors
    22.924515766  0.000000000  0.000000000     0.043621423  0.000000000  0.000000000
     0.000000000 22.924515766  0.000000000     0.000000000  0.043621423  0.000000000
     0.000000000  0.000000000 22.924515766     0.000000000  0.000000000  0.043621423

  length of vectors
    22.924515766 22.924515766 22.924515766     0.043621423  0.043621423  0.043621423

 FORCES acting on ions
    electron-ion (+dipol)            ewald-force                    non-local-force                 convergence-correction
   -.172E+04 -.524E+03 0.913E+02   0.172E+04 0.523E+03 -.928E+02   0.447E+01 0.174E+01 0.149E+01   -.238E-01 -.299E-01 -.404E-02
   -.122E+04 -.996E+03 0.887E+03   0.122E+04 0.995E+03 -.886E+03   0.210E+01 0.134E+01 -.120E+01   0.220E-01 -.108E-01 0.167E-01
   -.664E+03 -.347E+03 0.168E+04   0.663E+03 0.346E+03 -.167E+04   0.129E+01 0.151E+01 -.465E+01   -.118E-01 -.202E-01 0.236E-01
   -.163E+04 0.651E+03 0.294E+03   0.163E+04 -.649E+03 -.295E+03   0.454E+01 -.203E+01 0.285E+00   -.431E-01 -.434E-02 0.272E-01
   -.133E+04 0.121E+03 0.113E+04   0.133E+04 -.121E+03 -.113E+04   0.130E+01 0.225E+00 -.122E+01   -.204E-01 -.449E-03 0.497E-04
   -.149E+04 0.691E+03 -.791E+03   0.148E+04 -.690E+03 0.789E+03   0.428E+01 -.121E+01 0.280E+01   0.271E-01 0.358E-01 -.560E-02
   -.366E+02 -.117E+04 0.138E+04   0.365E+02 0.116E+04 -.138E+04   0.241E-01 0.313E+01 -.173E+01   0.740E-02 -.196E-01 0.205E-02
   -.150E+04 -.247E+03 -.960E+03   0.150E+04 0.246E+03 0.958E+03   0.303E+01 0.969E+00 0.195E+01   0.173E-02 -.300E-02 0.153E-01
   -.122E+04 -.102E+04 -.126E+03   0.122E+04 0.102E+04 0.126E+03   0.133E+01 0.730E+00 -.454E+00   -.741E-02 -.865E-03 0.231E-01
   -.679E+03 -.159E+04 0.602E+03   0.678E+03 0.159E+04 -.601E+03   0.104E+01 0.390E+01 -.986E+00   -.459E-02 0.488E-02 0.536E-02
   -.383E+03 0.738E+03 0.156E+04   0.383E+03 -.736E+03 -.156E+04   0.199E+00 -.152E+01 -.173E+01   -.493E-02 -.145E-01 -.161E-01
   -.427E+03 -.230E+03 0.741E+03   0.426E+03 0.229E+03 -.739E+03   0.801E+00 0.361E+00 -.162E+01   -.262E-01 0.295E-01 -.113E-02
   -.106E+04 0.259E+03 0.155E+02   0.106E+04 -.258E+03 -.154E+02   0.105E+01 -.789E+00 -.112E+00   0.122E+00 0.251E-01 0.177E-01
   -.112E+04 -.956E+03 -.943E+03   0.112E+04 0.954E+03 0.942E+03   0.162E+01 0.131E+01 0.136E+01   0.821E-02 0.239E-01 0.581E-02
   -.973E+03 0.121E+04 0.934E+03   0.971E+03 -.120E+04 -.933E+03   0.193E+01 -.262E+01 -.119E+01   -.992E-02 -.357E-01 0.123E-01
   0.305E+03 -.111E+03 0.172E+04   -.304E+03 0.111E+03 -.172E+04   -.595E+00 -.182E+00 -.188E+01   -.154E-01 -.173E-01 0.953E-02
   -.927E+03 0.154E+04 -.201E+03   0.925E+03 -.154E+04 0.201E+03   0.203E+01 -.285E+01 -.227E+00   0.109E-01 0.190E-01 -.763E-02
   -.833E+03 0.936E+03 -.995E+03   0.833E+03 -.936E+03 0.995E+03   0.639E+00 -.747E+00 -.224E+00   -.578E-02 -.227E-02 0.209E-01
   0.889E+02 -.945E+03 0.393E+03   -.887E+02 0.944E+03 -.393E+03   -.152E+00 0.103E+01 -.357E-01   -.372E-02 0.928E-02 -.933E-02
   -.867E+03 0.227E+03 -.141E+04   0.866E+03 -.226E+03 0.141E+04   0.131E+01 -.537E+00 0.161E+01   0.145E-01 0.354E-02 -.413E-02
   -.237E+03 0.853E+03 0.438E+03   0.237E+03 -.852E+03 -.438E+03   0.412E+00 -.875E+00 -.239E+00   -.561E-01 -.149E+00 -.741E-01
   -.588E+03 -.163E+04 -.296E+03   0.587E+03 0.163E+04 0.296E+03   0.112E+01 0.176E+01 -.109E+00   -.123E-01 -.833E-02 -.198E-01
   -.589E+03 -.599E+03 -.161E+04   0.587E+03 0.597E+03 0.161E+04   0.255E+01 0.203E+01 0.417E+01   0.124E-01 0.166E-01 0.216E-01
   0.416E+03 -.170E+04 0.541E+03   -.415E+03 0.170E+04 -.538E+03   -.141E+01 0.423E+01 -.321E+01   0.796E-02 -.892E-03 0.143E-01
   -.151E+03 -.152E+04 -.100E+04   0.151E+03 0.152E+04 0.996E+03   0.371E+00 0.330E+01 0.345E+01   -.907E-02 0.800E-02 0.195E-03
   0.833E+02 -.585E+03 -.800E+03   -.837E+02 0.585E+03 0.799E+03   0.429E+00 0.630E+00 0.984E+00   -.434E-02 -.166E-01 -.502E-01
   0.666E+03 -.154E+04 -.346E+03   -.666E+03 0.154E+04 0.346E+03   -.901E+00 0.139E+01 0.192E+00   0.407E-02 -.350E-03 0.147E-02
   -.108E+03 0.170E+04 0.708E+03   0.109E+03 -.170E+04 -.706E+03   -.851E+00 -.483E+01 -.143E+01   0.861E-02 0.606E-01 0.161E-01
   -.410E+03 -.189E+03 -.303E+03   0.409E+03 0.189E+03 0.303E+03   0.217E+00 -.650E+00 0.199E+00   -.385E-01 0.159E-01 0.465E-01
   0.134E+04 -.120E+04 0.449E+03   -.133E+04 0.120E+04 -.448E+03   -.367E+01 0.216E+01 -.128E+01   0.911E-02 0.137E-02 -.743E-02
   -.149E+03 0.176E+04 -.499E+03   0.149E+03 -.176E+04 0.498E+03   0.106E+00 -.369E+01 0.102E+01   0.307E-01 -.188E-01 -.577E-02
   0.472E+03 0.109E+04 0.137E+04   -.471E+03 -.108E+04 -.137E+04   -.970E+00 -.255E+01 -.238E+01   -.148E-01 -.183E-01 0.906E-02
   0.637E+03 -.926E+03 -.141E+04   -.636E+03 0.924E+03 0.140E+04   -.111E+01 0.280E+01 0.312E+01   -.273E-01 0.869E-02 -.104E-01
   -.303E+03 0.114E+04 -.132E+04   0.303E+03 -.114E+04 0.132E+04   0.266E+00 -.221E+01 0.825E+00   0.869E-02 0.208E-02 -.223E-01
   0.171E+03 0.703E+03 -.292E+03   -.172E+03 -.702E+03 0.291E+03   0.632E+00 -.657E+00 0.353E+00   -.204E-01 0.572E-01 0.186E-01
   0.895E+03 -.939E+03 0.122E+04   -.894E+03 0.937E+03 -.122E+04   -.134E+01 0.216E+01 -.909E+00   0.295E-01 0.170E-01 0.163E-01
   0.537E+03 0.170E+03 0.679E+03   -.536E+03 -.170E+03 -.677E+03   -.989E+00 0.198E-01 -.109E+01   -.405E-02 0.352E-01 -.172E-01
   0.432E+02 0.199E+03 -.172E+04   -.429E+02 -.199E+03 0.172E+04   -.242E+00 0.226E-01 0.270E+01   -.111E-01 -.153E-01 -.740E-02
   0.757E+03 -.387E+03 -.107E+02   -.755E+03 0.387E+03 0.109E+02   -.119E+01 0.463E+00 -.251E+00   -.178E-01 -.133E-01 0.537E-01
   0.133E+04 -.102E+04 -.584E+03   -.133E+04 0.102E+04 0.583E+03   -.190E+01 0.134E+01 0.506E+00   -.434E-02 0.120E-02 -.102E-02
   0.114E+04 0.727E+02 0.148E+04   -.113E+04 -.731E+02 -.147E+04   -.305E+01 0.350E+00 -.333E+01   -.718E-02 0.123E-01 -.610E-02
   0.711E+03 0.159E+04 0.354E+03   -.710E+03 -.159E+04 -.354E+03   -.875E+00 -.233E+01 0.134E-01   0.789E-03 0.262E-01 -.137E-01
   0.691E+03 0.261E+03 -.766E+03   -.690E+03 -.261E+03 0.765E+03   -.689E+00 -.511E-01 0.109E+01   0.671E-01 0.167E-01 -.974E-01
   0.626E+03 0.968E+03 -.142E+04   -.624E+03 -.965E+03 0.141E+04   -.170E+01 -.328E+01 0.382E+01   0.126E-01 -.118E-01 0.217E-01
   0.718E+03 0.160E+04 -.569E+03   -.717E+03 -.159E+04 0.568E+03   -.119E+01 -.349E+01 0.102E+01   0.247E-01 -.198E-01 -.107E-01
   0.137E+04 0.953E+03 0.835E+03   -.137E+04 -.951E+03 -.834E+03   -.314E+01 -.208E+01 -.176E+01   0.159E-01 -.308E-02 -.101E-01
   0.165E+04 -.247E+03 0.695E+03   -.164E+04 0.247E+03 -.694E+03   -.333E+01 0.579E+00 -.172E+01   -.158E-01 0.214E-01 -.556E-02
   0.139E+04 0.846E+03 0.126E+03   -.139E+04 -.846E+03 -.126E+03   0.436E-01 -.558E+00 -.900E-01   0.717E-02 0.157E-01 0.249E-02
   0.127E+04 -.183E+03 -.126E+04   -.127E+04 0.183E+03 0.125E+04   -.311E+01 0.153E+00 0.272E+01   -.182E-01 0.584E-03 0.115E-01
   0.179E+04 -.235E+03 -.100E+03   -.179E+04 0.234E+03 0.100E+03   -.321E+01 0.108E+01 0.251E-01   -.657E-02 -.375E-02 0.465E-02
   0.154E+04 0.771E+03 -.600E+03   -.154E+04 -.769E+03 0.600E+03   -.415E+01 -.235E+01 0.537E+00   -.152E-01 -.366E-01 -.108E-01
   0.636E+00 0.120E+01 -.117E+01   0.614E-11 0.568E-12 -.148E-11   -.686E+00 -.136E+01 0.118E+01   -.655E-02 -.681E-02 -.333E-03

 POSITION                                       TOTAL-FORCE (eV/Angst)
     16.80162     12.44705     10.44941         0.000289      0.006451      0.000090
     15.14988     13.92998      8.61775        -0.006538      0.006199     -0.008945
     14.00714     12.43036      6.48101         0.004274      0.010414     -0.009451
     17.11264      9.48889     10.11684         0.011477      0.010160     -0.007014
     15.70797     11.05099      8.21912         0.009969      0.004419     -0.000850
     16.45998      9.41635     12.87421        -0.016678     -0.018791     -0.000341
     12.32622     14.33035      7.72442        -0.006057      0.006642     -0.001351
     15.26681     11.96378     13.43328        -0.000544     -0.003264     -0.005944
     14.51456     13.91663     11.40893         0.003731      0.002309     -0.009073
     13.46933     15.93903      9.70601        -0.002399      0.000039     -0.002631
     13.24113      9.81502      7.23481         0.002793      0.010767      0.002754
     13.07304     12.06778      9.26500         0.006372      0.002011     -0.009092
     14.81125     10.69208     11.01627         0.002340     -0.002223     -0.002473
     13.69320     14.15034     14.20951        -0.001919     -0.011317     -0.004368
     14.96352      8.34584      8.72472         0.002418      0.013513     -0.000760
     11.31134     11.79501      6.93694         0.004968      0.008877     -0.003198
     14.58975      7.76348     11.40195        -0.009582     -0.013910     -0.000970
     13.69719      9.47524     13.44843        -0.002021     -0.000469     -0.003255
     11.50549     14.06457     10.59071         0.001961     -0.000204      0.000397
     13.01032     11.50456     15.21901        -0.002985     -0.006312     -0.002274
     12.54397      9.40955     10.14517         0.005375      0.005597      0.009773
     12.71029     16.03057     12.41439         0.004170      0.000547      0.004026
     12.29094     13.74156     16.76738        -0.000155     -0.005734     -0.003624
     10.70424     16.65839     10.39884        -0.004714     -0.003512     -0.005808
     11.64750     15.95391     15.08924         0.005590     -0.002860      0.001085
     10.98195     13.29603     14.30911        -0.003046     -0.004355      0.003084
     10.00724     15.61721     12.90224         0.001823     -0.001200     -0.002120
     12.52155      6.92044      9.24595         0.000023      0.005460      0.002965
     12.59955     12.08088     12.26070         0.004382     -0.006428     -0.011117
      8.48066     14.68298     10.80731        -0.006164     -0.002183      0.002739
     12.01126      7.38210     12.50906        -0.012106      0.001099      0.006149
     10.65143      8.98994      7.92617         0.008222      0.005893     -0.000590
      9.49282     14.18179     16.47650         0.009927     -0.000766      0.005793
     11.44730      9.16732     15.16398        -0.002880     -0.000319      0.009163
     10.94971      9.93621     12.39298        -0.007355     -0.002705      0.010528
      9.68385     13.58875      8.47414        -0.009042     -0.010317     -0.003677
     10.36118     11.11310      9.72861        -0.002184     -0.014155      0.005212
     10.55149     11.49947     16.72918         0.004789      0.002687      0.004984
      9.61158     12.51728     12.01453         0.010194     -0.004625      0.002418
      8.11227     13.97983     14.05765         0.004508     -0.000885      0.000264
      8.68128     11.17834      7.34635         0.004485     -0.006650      0.001667
     10.04041      7.95117     10.57357         0.002979     -0.005980      0.002227
      9.25538     10.97760     14.25795        -0.000470      0.005108      0.000973
      8.87707      9.25066     16.35614        -0.006190     -0.000584      0.001605
      9.29338      8.01088     13.66646        -0.013300      0.009371      0.008301
      8.01058      9.20239      9.11034        -0.006144     -0.001068      0.003404
      7.67096     11.99222      9.99913         0.006211     -0.008700      0.000737
      8.10446      9.75086     11.79707        -0.000317     -0.003805      0.001686
      7.59264     12.00947     16.10385        -0.003160      0.007599      0.005523
      6.77652     11.97088     12.77051         0.007001      0.004896     -0.004026
      6.86648      9.65174     14.42001        -0.004320      0.013264      0.005407
    total drift:                               -0.056122     -0.167743      0.006945

  FREE ENERGIE OF THE ION-ELECTRON SYSTEM (eV)
  free  energy   TOTEN  =      -111.57574703 eV

  energy  without entropy=     -111.57574703  energy(sigma->0) =     -111.57574703

 d Force = 0.1103248E-02[-0.585E-03, 0.279E-02]  d Energy = 0.1110410E-02-0.716E-05
 d Force =-0.2884186E+01[-0.292E+01,-0.285E+01]  d Ewald  =-0.2884181E+01-0.572E-05

 reached required accuracy - stopping structural energy minimisation