 vasp.5.3.5 31Mar14 (build Feb 01 2018 12:10:03) gamma-only

 executed on             LinuxIFC date 2019.03.24  23:41:41

 INCAR:
 POTCAR:    PAW_PBE Ag 02Apr2005
 POTCAR:    PAW_PBE Ag 02Apr2005
   VRHFIN =Ag : s1 d10

   TITEL  = PAW_PBE Ag 02Apr2005
   POMASS =  107.868; ZVAL   =   11.000    mass and valenz
   ENMAX  =  249.844; ENMIN  =  187.383 eV

  PAW_PBE Ag 02Apr2005                  :

 POSCAR: Al50, -159.01077992 <s> Ag </s>
  positions in direct lattice
 exchange correlation table for  LEXCH =        8
   RHO(1)=    0.500       N(1)  =     2000
   RHO(2)=  100.500       N(2)  =     4000

 ion  position               nearest neighbor table
   1  0.638  0.355  0.389-   6 2.73   2 2.76   3 2.86   9 2.88   5 2.88   4 2.94  14 3.16
   2  0.634  0.312  0.501-   7 2.63   1 2.76  14 2.76   5 2.81   8 2.87
   3  0.729  0.436  0.365-   5 2.81   9 2.83   1 2.86  15 2.87   4 2.88  13 2.92
   4  0.627  0.438  0.293-  13 2.86   3 2.88   9 2.89   6 2.91  17 2.91   1 2.94
   5  0.699  0.414  0.481-   9 2.76   8 2.77  11 2.79   3 2.81   2 2.81   1 2.88  15 2.99  14 3.24

   6  0.531  0.404  0.368-  10 2.68   1 2.73  18 2.78  14 2.86   9 2.88  17 2.89   4 2.91
   7  0.557  0.322  0.585-   2 2.63  12 2.67   8 2.72  16 2.83  14 2.90  21 2.98
   8  0.646  0.400  0.589-  26 2.66   7 2.72   5 2.77  11 2.83   2 2.87  25 2.99  14 3.05  21 3.18

   9  0.623  0.477  0.412-  29 2.72  17 2.75   5 2.76  13 2.81  15 2.82   3 2.83  14 2.86   1 2.88
                             6 2.88   4 2.89  30 2.93  11 3.18
  10  0.438  0.456  0.323-   6 2.68  24 2.72  32 2.74  17 2.93  18 3.09
  11  0.659  0.512  0.541-   5 2.79  15 2.82  34 2.82   8 2.83  38 2.85  25 2.88  35 2.90  26 3.09
                             9 3.18  29 3.23  30 3.55  14 3.60
  12  0.471  0.301  0.660-   7 2.67  19 2.71  22 2.79  16 2.86  21 3.01
  13  0.678  0.546  0.328-   9 2.81  30 2.84   4 2.86  15 2.86   3 2.92  17 3.11
  14  0.558  0.404  0.490-   2 2.76  18 2.82  25 2.83   9 2.86   6 2.86   7 2.90  29 2.92   8 3.05
                            16 3.09   1 3.16   5 3.24  11 3.60
  15  0.727  0.535  0.441-  34 2.72  11 2.82   9 2.82  13 2.86   3 2.87  30 2.90   5 2.99
  16  0.457  0.393  0.577-  33 2.77  20 2.82   7 2.83  12 2.86  25 2.90  27 2.98  18 2.99  22 3.02
                            21 3.06  14 3.09  19 3.18
  17  0.545  0.524  0.335-  39 2.69   9 2.75   6 2.89   4 2.91  10 2.93  32 3.10  13 3.11  29 3.21
                            30 3.26
  18  0.443  0.411  0.450-   6 2.78  20 2.78  14 2.82  33 2.84  32 2.86  23 2.91  16 2.99  10 3.09
                            29 3.51
  19  0.422  0.395  0.711-  37 2.68  12 2.71  27 2.75  21 2.86  22 2.92  16 3.18
  20  0.349  0.385  0.521-  23 2.75  18 2.78  22 2.82  16 2.82  27 2.87  31 3.03  33 3.03
  21  0.541  0.410  0.679-  25 2.75  19 2.86  26 2.89   7 2.98  12 3.01  16 3.06  28 3.17   8 3.18
                            37 3.28
  22  0.356  0.325  0.628-  12 2.79  27 2.82  20 2.82  19 2.92  16 3.02
  23  0.331  0.470  0.439-  24 2.69  20 2.75  31 2.78  32 2.85  18 2.91  33 3.01  44 3.08
  24  0.343  0.526  0.337-  23 2.69  10 2.72  45 2.73  32 2.82
  25  0.546  0.483  0.584-  36 2.71  29 2.73  21 2.75  14 2.83  11 2.88  28 2.89  16 2.90   8 2.99
                            26 3.02  33 3.21  35 3.46  37 3.52
  26  0.644  0.481  0.671-   8 2.66  28 2.69  38 2.78  21 2.89  25 3.02  11 3.09
  27  0.352  0.448  0.629-  31 2.72  19 2.75  41 2.78  22 2.82  37 2.83  20 2.87  33 2.89  16 2.98

[...]

  29  0.537  0.529  0.475-  32 2.68   9 2.72  25 2.73  35 2.82  30 2.90  14 2.92  42 3.04  36 3.15
                            33 3.17  17 3.21  11 3.23  39 3.37  18 3.51
  30  0.624  0.604  0.422-  35 2.79  40 2.80  13 2.84  15 2.90  29 2.90   9 2.93  39 3.05  34 3.09
                            17 3.26  11 3.55
  31  0.283  0.496  0.546-  27 2.72  44 2.76  23 2.78  41 2.96  20 3.03  33 3.09
  32  0.436  0.531  0.416-  29 2.68  10 2.74  45 2.77  24 2.82  42 2.83  23 2.85  33 2.86  18 2.86
                            39 2.89  17 3.10  44 3.26
  33  0.416  0.497  0.534-  16 2.77  36 2.80  41 2.81  18 2.84  32 2.86  27 2.89  44 2.97  23 3.01
                            20 3.03  31 3.09  29 3.17  25 3.21  42 3.42
  34  0.713  0.621  0.521-  15 2.72  35 2.82  11 2.82  38 2.88  30 3.09
  35  0.591  0.618  0.538-  30 2.79  38 2.81  34 2.82  29 2.82  49 2.84  46 2.84  40 2.84  36 2.86
                            11 2.90  42 3.40  25 3.46
  36  0.484  0.583  0.589-  25 2.71  43 2.74  42 2.77  33 2.80  35 2.86  41 2.89  28 2.92  46 2.96
                            47 2.98  49 3.00  37 3.06  29 3.15
  37  0.439  0.509  0.691-  19 2.68  28 2.68  41 2.78  27 2.83  43 2.85  36 3.06  21 3.28  25 3.52

[...]

  40  0.556  0.701  0.453-  49 2.75  48 2.77  39 2.80  30 2.80  35 2.84  42 2.90
  41  0.363  0.568  0.618-  47 2.75  37 2.78  27 2.78  33 2.81  36 2.89  44 2.93  31 2.96  43 3.01

  42  0.455  0.632  0.483-  36 2.77  39 2.80  49 2.82  32 2.83  48 2.83  47 2.85  40 2.90  44 2.90
                            45 2.93  50 2.96  29 3.04  35 3.40  33 3.42
  43  0.450  0.633  0.691-  36 2.74  37 2.85  46 2.89  47 2.99  41 3.01  28 3.03
  44  0.336  0.591  0.496-  50 2.72  31 2.76  42 2.90  45 2.92  41 2.93  33 2.97  23 3.08  47 3.11
                            32 3.26
  45  0.377  0.630  0.382-  24 2.73  32 2.77  50 2.83  48 2.84  39 2.90  44 2.92  42 2.93
  46  0.566  0.659  0.652-  49 2.67  38 2.73  28 2.77  35 2.84  43 2.89  36 2.96
  47  0.395  0.677  0.582-  41 2.75  49 2.76  50 2.77  42 2.85  36 2.98  43 2.99  44 3.11
  48  0.449  0.727  0.405-  39 2.73  40 2.77  50 2.80  42 2.83  45 2.84
  49  0.510  0.708  0.563-  46 2.67  40 2.75  47 2.76  42 2.82  35 2.84  36 3.00
  50  0.351  0.707  0.474-  44 2.72  47 2.77  48 2.80  45 2.83  42 2.96

  LATTYP: Found a simple cubic cell.
 ALAT       =    22.9979117959

  Lattice vectors:

 A1 = (  22.9979117959,   0.0000000000,   0.0000000000)
 A2 = (   0.0000000000,  22.9979117959,   0.0000000000)
 A3 = (   0.0000000000,   0.0000000000,  22.9979117959)

Analysis of symmetry for initial positions (statically):
 Subroutine PRICEL returns:
 Original cell was already a primitive cell.

 Routine SETGRP: Setting up the symmetry group for a
 simple cubic supercell.

 Subroutine GETGRP returns: Found  1 space group operations
 (whereof  1 operations were pure point group operations)
 out of a pool of 48 trial point group operations.

The static configuration has the point symmetry C_1 .

Analysis of symmetry for dynamics (positions and initial velocities):
 Subroutine PRICEL returns:
 Original cell was already a primitive cell.

 Routine SETGRP: Setting up the symmetry group for a
 simple cubic supercell.

 Subroutine GETGRP returns: Found  1 space group operations
 (whereof  1 operations were pure point group operations)
 out of a pool of 48 trial point group operations.

The dynamic configuration has the point symmetry C_1 .

Analysis of magnetic symmetry:
 Subroutine PRICEL returns:
 Original cell was already a primitive cell.

 Subroutine MAGSYM returns: Found  1 space group operations
 (whereof  1 operations were pure point group operations)
 out of a pool of  1 trial space group operations
 (whereof  1 operations were pure point group operations)
 and found also     1 'primitive' translations

The magnetic configuration has the point symmetry C_1 .

 KPOINTS: Gamma-point only
  k-points in reciprocal lattice
Space group operators:
 irot       det(A)        alpha          n_x          n_y          n_z        tau_x        tau_y        tau_z
    1     1.000000     0.000000     1.000000     0.000000     0.000000     0.000000     0.000000     0.000000

 I would recommend the setting:
   dimension x,y,z NGX =    89 NGY =   89 NGZ =   89
 SYSTEM =  unknown system
 POSCAR =  Al50, -159.01077992 <s> Ag </s>

 Startparameter for this run:
   NWRITE =      2    write-flag & timer
   PREC   = normal    normal or accurate (medium, high low for compatibility)
   ISTART =      0    job   : 0-new  1-cont  2-samecut
   ICHARG =      2    charge: 1-file 2-atom 10-const
   ISPIN  =      2    spin polarized calculation?
   LNONCOLLINEAR =      F non collinear calculations
   LSORBIT =      F    spin-orbit coupling
   INIWAV =      1    electr: 0-lowe 1-rand  2-diag
   LASPH  =      F    aspherical Exc in radial PAW
   METAGGA=      F    non-selfconsistent MetaGGA calc.

 Electronic Relaxation 1
   ENCUT  =  249.8 eV  18.36 Ry    4.29 a.u.  29.64 29.64 29.64*2*pi/ulx,y,z
   ENINI  =  249.8     initial cutoff
   ENAUG  =  412.5 eV  augmentation charge cutoff
   NELM   =     60;   NELMIN=  2; NELMDL= -5     # of ELM steps
   EDIFF  = 0.1E-03   stopping-criterion for ELM
   LREAL  =      F    real-space projection
   NLSPLINE    = F    spline interpolate recip. space projectors
   LCOMPAT=      F    compatible to vasp.4.4
   GGA_COMPAT  = T    GGA compatible to vasp.4.4-vasp.4.6
   LMAXPAW     = -100 max onsite density
   LMAXMIX     =    2 max onsite mixed and CHGCAR
   VOSKOWN=      0    Vosko Wilk Nusair interpolation
   ROPT   =    0.00000
 Ionic relaxation
   EDIFFG = 0.1E-02   stopping-criterion for IOM
   NSW    =   1000    number of steps for IOM
   NBLOCK =      1;   KBLOCK =   1000    inner block; outer block
   IBRION =      2    ionic relax: 0-MD 1-quasi-New 2-CG
   NFREE  =      1    steps in history (QN), initial steepest desc. (CG)
   ISIF   =      2    stress and relaxation
   IWAVPR =     11    prediction:  0-non 1-charg 2-wave 3-comb
   ISYM   =      2    0-nonsym 1-usesym 2-fastsym
   LCORR  =      T    Harris-Foulkes like correction to forces

   POTIM  = 0.1000    time-step for ionic-motion
   TEIN   =    0.0    initial temperature
   TEBEG  =    0.0;   TEEND  =   0.0 temperature during run
   SMASS  =  -3.00    Nose mass-parameter (am)
   estimated Nose-frequenzy (Omega)   =  0.10E-29 period in steps =****** mass=  -0.121E-25a.u.
   SCALEE = 1.0000    scale energy and forces
   NPACO  =    256;   APACO  = 16.0  distance and # of slots for P.C.
   PSTRESS=    0.0 pullay stress

  Mass of Ions in am
   POMASS = 107.87
  Ionic Valenz
   ZVAL   =  11.00
  Atomic Wigner-Seitz radii
  virtual crystal weights
   VCA    =   1.00
   NELECT =     550.0000    total number of electrons
   NUPDOWN=      -1.0000    fix difference up-down

 DOS related values:
   EMIN   =  10.00;   EMAX   =-10.00  energy-range for DOS
   EFERMI =   0.00
   ISMEAR =     0;   SIGMA  =   0.00  broadening in eV -4-tet -1-fermi 0-gaus

 Electronic relaxation 2 (details)
   IALGO  =     38    algorithm
   LDIAG  =      T    sub-space diagonalisation (order eigenvalues)
   LSUBROT=      F    optimize rotation matrix (better conditioning)
   TURBO    =      0    0=normal 1=particle mesh
   IRESTART =      0    0=no restart 2=restart with 2 vectors
   NREBOOT  =      0    no. of reboots
   NMIN     =      0    reboot dimension
   EREF     =   0.00    reference energy to select bands
   IMIX   =      4    mixing-type and parameters
     AMIX     =   0.40;   BMIX     =  1.00
     AMIX_MAG =   1.60;   BMIX_MAG =  1.00
     AMIN     =   0.10
     WC   =   100.;   INIMIX=   1;  MIXPRE=   1;  MAXMIX= -45

 Intra band minimization:
   WEIMIN = 0.0010     energy-eigenvalue tresh-hold
[...]
      16 -82.1264      17 -81.8740      18 -82.1311      19 -81.8208      20 -81.9193
      21 -81.9249      22 -81.8806      23 -82.0295      24 -81.7695      25 -82.2513
      26 -81.8493      27 -81.8790      28 -82.0554      29 -82.3510      30 -82.2512
      31 -81.9232      32 -82.2933      33 -82.3456      34 -81.9561      35 -82.4225
      36 -82.3264      37 -82.1299      38 -81.8757      39 -81.8931      40 -82.0554
      41 -82.0883      42 -82.4756      43 -81.9485      44 -82.1268      45 -82.0697
      46 -81.9676      47 -82.0086      48 -82.0242      49 -82.1125      50 -82.1139

 E-fermi :  -3.3256     XC(G=0):  -1.4201     alpha+bet : -0.9435

[...]

 spin component 2

 k-point     1 :       0.0000    0.0000    0.0000
  band No.  band energies     occupation
      1      -9.6986      1.00000
      2      -9.2131      1.00000
      3      -9.1741      1.00000
      4      -9.0789      1.00000
      5      -9.0481      1.00000
      6      -9.0177      1.00000
      7      -8.9595      1.00000
      8      -8.9267      1.00000
      9      -8.9187      1.00000
     10      -8.9127      1.00000
     11      -8.8691      1.00000
     12      -8.8622      1.00000
     13      -8.8454      1.00000
     14      -8.8135      1.00000
     15      -8.7845      1.00000
     16      -8.7405      1.00000
     17      -8.7276      1.00000
     18      -8.7179      1.00000
     19      -8.6992      1.00000
     20      -8.6855      1.00000
     21      -8.6588      1.00000
     22      -8.6309      1.00000
     23      -8.6170      1.00000
     24      -8.6019      1.00000
     25      -8.5863      1.00000
     26      -8.5648      1.00000
     27      -8.5504      1.00000
     28      -8.5279      1.00000
     29      -8.5171      1.00000
     30      -8.4908      1.00000
     31      -8.4829      1.00000
     32      -8.4621      1.00000
     33      -8.4519      1.00000
     34      -8.4410      1.00000
     35      -8.4167      1.00000
     36      -8.3996      1.00000
     37      -8.3845      1.00000
     38      -8.3698      1.00000
     39      -8.3535      1.00000
     40      -8.3372      1.00000
     41      -8.3320      1.00000
     42      -8.3086      1.00000
     43      -8.2839      1.00000
     44      -8.2737      1.00000
     45      -8.2613      1.00000
     46      -8.2480      1.00000
     47      -8.2292      1.00000
     48      -8.2217      1.00000
     49      -8.1800      1.00000
     50      -8.1794      1.00000
     51      -8.1708      1.00000
     52      -8.1593      1.00000
     53      -8.1543      1.00000
     54      -8.1355      1.00000
     55      -8.1278      1.00000
     56      -8.1258      1.00000
     57      -8.1003      1.00000
     58      -8.0789      1.00000
     59      -8.0673      1.00000
     60      -8.0619      1.00000
[...]
    342       1.2722      0.00000
    343       1.2915      0.00000
    344       1.3250      0.00000
    345       1.3864      0.00000
    346       1.4106      0.00000
    347       1.4144      0.00000
    348       1.4395      0.00000
    349       1.4502      0.00000
    350       1.4714      0.00000
    351       1.4879      0.00000
    352       1.4952      0.00000
    353       1.5497      0.00000
    354       1.5769      0.00000
    355       1.5900      0.00000
    356       1.6160      0.00000

[...]

 soft charge-density along one line, spin component           2
         0         1         2         3         4         5         6         7         8         9
 total charge-density along one line

------------------------ aborting loop because EDIFF is reached ----------------------------------------

  FORCE on cell =-STRESS in cart. coord.  units (eV):
  Direction    XX          YY          ZZ          XY          YZ          ZX
  Alpha Z   174.81914   174.81914   174.81914
  Ewald   47130.52944 47057.58950 49798.06136 -4513.51109 -5756.88910 -7084.95129
  Hartree 63843.98949 63589.08559 66425.97158 -4206.25118 -5372.74739 -6703.14395
  E(xc)   -2900.16511 -2899.45639 -2900.05039    -0.47736    -0.61868    -0.40119
  Local  ************************************  8716.73263 11127.94808 13787.71075
  n-local  -517.56806  -519.23686  -515.47917     0.04940    -1.40005    -0.95450
  augment  4595.90975  4593.25628  4595.88095     1.07696     1.24708     0.59756
  Kinetic  6845.70334  6838.73905  6846.72667     2.76298     2.30769     1.41413
  Fock        0.00000     0.00000     0.00000     0.00000     0.00000     0.00000
  Total     -17.24400   -17.10475   -16.81149     0.38234    -0.15237     0.27150
  in kB      -2.27135    -2.25300    -2.21438     0.05036    -0.02007     0.03576

 VOLUME and BASIS-vectors are now :
  energy-cutoff  :      249.84
  volume of cell :    12163.69
      direct lattice vectors                 reciprocal lattice vectors
    22.997911796  0.000000000  0.000000000     0.043482209  0.000000000  0.000000000
     0.000000000 22.997911796  0.000000000     0.000000000  0.043482209  0.000000000
     0.000000000  0.000000000 22.997911796     0.000000000  0.000000000  0.043482209

  length of vectors
    22.997911796 22.997911796 22.997911796     0.043482209  0.043482209  0.043482209

 FORCES acting on ions
    electron-ion (+dipol)            ewald-force                    non-local-force                 convergence-correction
   -.673E+03 0.142E+04 0.791E+03   0.672E+03 -.142E+04 -.789E+03   0.533E+00 -.334E+01 -.184E+01   0.275E-03 0.138E-01 -.881E-03
   -.873E+03 0.152E+04 -.186E+02   0.871E+03 -.152E+04 0.191E+02   0.217E+01 -.493E+01 -.446E+00   -.115E-01 0.319E-02 0.258E-02
   -.145E+04 0.415E+03 0.949E+03   0.145E+04 -.413E+03 -.946E+03   0.335E+01 -.204E+01 -.306E+01   0.120E-01 -.156E-01 0.126E-01
   -.474E+03 0.652E+03 0.157E+04   0.473E+03 -.650E+03 -.157E+04   0.826E+00 -.184E+01 -.428E+01   0.163E-01 -.185E-02 -.138E-01
   -.160E+04 0.644E+03 -.378E+02   0.160E+04 -.644E+03 0.368E+02   0.238E+01 -.348E+00 0.104E+01   -.247E-01 -.683E-02 0.909E-03
   0.190E+03 0.124E+04 0.109E+04   -.190E+03 -.124E+04 -.109E+04   -.418E-01 -.261E+01 -.755E+00   -.286E-01 -.107E-01 0.189E-01
   -.470E+03 0.152E+04 -.507E+03   0.469E+03 -.152E+04 0.506E+03   0.444E+00 -.227E+01 0.529E+00   -.243E-01 -.122E-01 0.939E-02
   -.132E+04 0.751E+03 -.791E+03   0.132E+04 -.750E+03 0.790E+03   0.182E+01 -.671E+00 0.149E+01   0.417E-02 -.168E-01 -.414E-01
   -.608E+03 0.263E+03 0.688E+03   0.607E+03 -.262E+03 -.686E+03   0.635E+00 -.279E+00 -.158E+01   0.244E-01 -.271E-01 0.349E-01
   0.770E+03 0.818E+03 0.140E+04   -.768E+03 -.816E+03 -.140E+04   -.226E+01 -.257E+01 -.311E+01   -.185E-01 0.265E-01 0.255E-01
   -.123E+04 -.748E+02 -.368E+03   0.123E+04 0.741E+02 0.368E+03   0.412E+00 0.751E+00 0.193E+00   0.320E-01 0.162E-01 -.233E-01
   0.733E+02 0.148E+04 -.809E+03   -.737E+02 -.147E+04 0.807E+03   0.403E+00 -.490E+01 0.195E+01   -.894E-03 0.392E-01 0.172E-01
   -.919E+03 -.598E+03 0.141E+04   0.917E+03 0.596E+03 -.141E+04   0.181E+01 0.245E+01 -.318E+01   0.406E-01 0.919E-02 0.260E-02
   -.232E+03 0.114E+04 0.175E+03   0.231E+03 -.114E+04 -.176E+03   0.120E+01 -.969E+00 0.535E+00   0.424E-02 -.762E-02 0.101E-02
   -.168E+04 -.444E+03 0.379E+03   0.167E+04 0.442E+03 -.380E+03   0.341E+01 0.218E+01 0.312E+00   -.200E-01 0.402E-02 0.331E-01
   0.327E+03 0.118E+04 -.207E+03   -.326E+03 -.117E+04 0.206E+03   -.600E+00 -.944E+00 0.104E+01   0.176E-01 -.447E-02 0.586E-01
   0.730E+02 -.525E+02 0.165E+04   -.724E+02 0.530E+02 -.165E+04   -.552E+00 -.511E+00 -.183E+01   -.139E-01 0.180E-01 -.827E-02
   0.570E+03 0.121E+04 0.608E+03   -.569E+03 -.121E+04 -.608E+03   -.992E+00 -.210E+01 -.633E+00   -.228E-02 -.165E-01 -.240E-01
   0.629E+03 0.648E+03 -.148E+04   -.628E+03 -.648E+03 0.148E+04   -.753E+00 -.788E+00 0.390E+01   0.280E-01 -.342E-02 -.295E-01
   0.128E+04 0.117E+04 0.298E+03   -.128E+04 -.117E+04 -.296E+03   -.173E+01 -.215E+01 -.187E+01   -.649E-02 0.171E-01 0.305E-02
   -.388E+03 0.725E+03 -.149E+04   0.387E+03 -.724E+03 0.148E+04   0.142E+01 -.109E+01 0.277E+01   -.310E-01 -.276E-01 -.534E-02
   0.998E+03 0.134E+04 -.378E+03   -.996E+03 -.133E+04 0.378E+03   -.271E+01 -.395E+01 0.350E+00   0.187E-02 -.141E-01 0.120E-01
   0.147E+04 0.450E+03 0.739E+03   -.147E+04 -.449E+03 -.737E+03   -.164E+01 -.878E+00 -.185E+01   0.107E-01 0.402E-02 -.403E-01
   0.121E+04 -.139E+03 0.127E+04   -.120E+04 0.138E+03 -.127E+04   -.357E+01 0.103E+01 -.419E+01   0.275E-01 -.205E-01 0.202E-01
   -.367E+03 0.264E+03 -.705E+03   0.366E+03 -.264E+03 0.704E+03   0.653E+00 -.401E+00 0.451E+00   -.140E-01 0.358E-01 -.284E-03
   -.114E+04 0.225E+03 -.141E+04   0.114E+04 -.224E+03 0.141E+04   0.336E+01 -.613E+00 0.333E+01   0.383E-02 0.182E-01 0.810E-02
   0.142E+04 0.401E+03 -.924E+03   -.142E+04 -.400E+03 0.924E+03   -.216E+01 -.952E+00 0.692E+00   -.120E-01 0.663E-02 -.104E-01
   -.378E+03 -.388E+03 -.167E+04   0.378E+03 0.388E+03 0.166E+04   0.731E-01 0.211E+00 0.313E+01   0.882E-02 -.409E-02 -.206E-01
   -.850E+02 0.199E+01 0.232E+03   0.854E+02 -.173E+01 -.232E+03   -.402E+00 -.259E+00 -.449E+00   0.310E-01 -.330E-02 -.206E-01
   -.882E+03 -.872E+03 0.697E+03   0.882E+03 0.872E+03 -.697E+03   -.191E+00 0.116E+00 -.175E+00   0.724E-02 -.372E-01 -.185E-01
   0.182E+04 -.590E+01 -.610E+02   -.182E+04 0.529E+01 0.618E+02   -.493E+01 0.581E+00 -.848E+00   0.986E-02 0.140E-01 0.317E-01
   0.545E+03 -.954E+02 0.980E+03   -.544E+03 0.968E+02 -.980E+03   -.501E+00 -.135E+01 -.585E-02   -.448E-01 -.201E-01 -.482E-01
   0.754E+03 0.231E+03 -.158E+03   -.753E+03 -.231E+03 0.157E+03   -.101E+01 0.226E+00 0.573E+00   -.248E-01 0.265E-01 -.366E-02
   -.153E+04 -.991E+03 -.225E+03   0.153E+04 0.987E+03 0.225E+03   0.438E+01 0.379E+01 -.360E-01   -.154E-01 -.928E-02 -.145E-01
   -.766E+03 -.111E+04 -.348E+03   0.765E+03 0.111E+04 0.347E+03   0.346E+00 -.285E+00 0.304E+00   0.282E-01 -.251E-01 0.578E-01
   0.222E+03 -.623E+03 -.617E+03   -.222E+03 0.621E+03 0.616E+03   -.617E+00 0.170E+01 0.605E+00   0.141E-02 0.195E-01 0.284E-02
   0.506E+03 0.515E+02 -.143E+04   -.505E+03 -.523E+02 0.143E+04   -.711E+00 0.841E+00 0.501E+00   -.221E-02 -.177E-01 0.930E-03
   -.127E+04 -.683E+03 -.107E+04   0.127E+04 0.682E+03 0.107E+04   0.266E+01 0.600E+00 0.102E+01   -.178E-02 0.276E-01 -.272E-01
   -.145E+03 -.913E+03 0.147E+04   0.144E+03 0.911E+03 -.147E+04   0.265E+00 0.252E+01 -.203E+01   -.119E-01 0.157E-02 -.987E-02
   -.785E+03 -.157E+04 0.477E+03   0.782E+03 0.157E+04 -.477E+03   0.344E+01 0.344E+01 0.268E+00   -.506E-02 0.152E-01 -.101E-02
   0.141E+04 -.524E+03 -.942E+03   -.141E+04 0.523E+03 0.940E+03   -.192E+01 0.111E+01 0.196E+01   0.237E-01 0.985E-02 0.241E-02
   0.200E+03 -.906E+03 0.344E+03   -.200E+03 0.904E+03 -.344E+03   -.185E+00 0.196E+01 -.140E+00   0.176E-02 0.356E-01 -.205E-01
   0.555E+03 -.829E+03 -.156E+04   -.554E+03 0.828E+03 0.155E+04   -.102E+01 0.142E+01 0.457E+01   -.527E-02 -.244E-02 -.332E-01
   0.138E+04 -.643E+03 0.175E+03   -.138E+04 0.642E+03 -.175E+03   -.130E+01 0.741E+00 -.550E+00   -.209E-02 -.252E-01 0.231E-01
   0.106E+04 -.905E+03 0.110E+04   -.106E+04 0.903E+03 -.110E+04   -.235E+01 0.174E+01 -.240E+01   -.859E-02 -.804E-02 -.852E-02
   -.432E+03 -.135E+04 -.118E+04   0.431E+03 0.135E+04 0.117E+04   0.367E+00 0.283E+01 0.303E+01   -.594E-02 0.270E-02 -.617E-02
   0.996E+03 -.131E+04 -.734E+03   -.994E+03 0.131E+04 0.732E+03   -.121E+01 0.247E+01 0.161E+01   0.939E-02 -.308E-01 0.112E-01
   0.218E+03 -.155E+04 0.876E+03   -.218E+03 0.154E+04 -.874E+03   -.218E+00 0.393E+01 -.250E+01   0.390E-02 0.109E-03 0.874E-02
   -.517E+02 -.174E+04 -.406E+03   0.517E+02 0.173E+04 0.406E+03   0.198E-01 0.395E+01 -.628E+00   0.532E-02 0.112E-02 -.322E-02
   0.107E+04 -.144E+04 0.131E+03   -.107E+04 0.144E+04 -.131E+03   -.294E+01 0.310E+01 -.495E+00   -.431E-02 0.530E-02 0.213E-02
   0.191E+00 -.667E+00 0.285E+01   0.205E-11 -.591E-11 0.253E-11   -.122E+00 0.669E+00 -.270E+01   0.138E-01 0.237E-02 -.315E-01

 POSITION                                       TOTAL-FORCE (eV/Angst)
     14.75355      8.20671      9.11346         0.002525     -0.001258      0.005118
     15.04659      7.22388     11.74610         0.006490      0.007217      0.006016
     16.57033     10.30308      8.22536        -0.010327      0.006989     -0.005606
     14.25778      9.91130      6.71958        -0.004116     -0.004151     -0.001229
     16.24282      9.68426     10.99710         0.003376      0.005774     -0.000335
     12.16439      9.20959      8.46880         0.001749     -0.003260     -0.000976
     13.11224      7.42197     13.77525         0.002779      0.008197      0.000585
     15.04893      9.38753     13.55140         0.008588      0.001812      0.008870
     14.09860     10.94527      9.46325        -0.009757      0.013521      0.001664
      9.68825     10.18122      7.64227         0.007999      0.000999      0.000821
     14.78693     11.85798     12.20123        -0.009529      0.003447     -0.003609
     10.92886      6.73440     15.33503         0.000873      0.001495     -0.014306
     14.94085     12.62709      7.40423        -0.026495      0.010228     -0.001471
     13.04057      9.17591     11.43354         0.007543      0.003963     -0.002798
     16.52773     12.40987      9.97753        -0.002670      0.009054     -0.007145
     10.65591      8.78338     13.36200         0.003840     -0.020971     -0.032750
     12.21152     11.78300      7.21949        -0.007439     -0.003302     -0.008958
     10.37239      9.53595     10.50710         0.008935      0.004413     -0.009427
      9.48480      8.85728     16.38163        -0.004637     -0.002595      0.008160
      7.93864      8.97349     12.03580         0.002480     -0.008320     -0.005543
     12.25078      9.23991     15.86604        -0.005423     -0.000849      0.010704
      8.38736      7.39313     14.28083         0.007654      0.006711     -0.003422
      7.94382     10.98889     10.00181         0.007673      0.009257     -0.007420
      7.94781     12.43123      7.61489         0.005900      0.006645      0.004936
     12.55199     10.97846     13.75593        -0.000116     -0.014303      0.004657
     14.56145     10.95885     15.74367        -0.001296     -0.004995      0.010495
      7.71258     10.14495     14.64390         0.002179      0.004671     -0.000497
     12.49779     12.77095     15.98306        -0.002048     -0.003436      0.009297
     12.06306     11.92147     11.21760        -0.000971     -0.008807      0.015531
     14.05163     13.73211      9.85023         0.012959      0.004604      0.006578
      6.68833     11.51475     12.43963        -0.000617     -0.009107     -0.012686
     10.25866     12.34056      9.16763        -0.004429     -0.013023     -0.011330
      9.55965     11.23251     12.51963        -0.003653      0.003109      0.007239
     16.09097     14.30132     12.04632         0.005904     -0.004411      0.005499
     13.38700     14.53184     12.44002         0.006343      0.008610      0.002603
     10.97005     13.47512     13.47322        -0.003568     -0.001407      0.009635
     10.19765     11.33360     15.41131        -0.000092      0.001581      0.004061
     14.80083     13.51533     14.57479        -0.009680     -0.009318     -0.001681
     12.01133     14.42794      8.04044         0.008230     -0.004872      0.004290
     13.24979     16.34158     10.19569        -0.003416      0.004653     -0.005311
      8.10892     12.98236     14.33782        -0.002873     -0.000547     -0.009969
     11.09608     14.53385     10.71203        -0.002599     -0.000604      0.007719
     10.03269     14.21058     16.04260        -0.003710      0.002568      0.008317
      8.49109     13.57119     11.43444        -0.005722      0.002609     -0.001880
      9.00199     14.76411      8.75149         0.004275     -0.001091     -0.001486
     12.47706     15.37811     14.95473         0.006341     -0.007291      0.001357
      9.06599     15.54274     13.75998         0.000234      0.002944      0.005258
     10.79064     16.88378      9.11588         0.003265     -0.003617      0.000229
     11.44259     16.58488     12.58652        -0.005059     -0.001464      0.004430
      8.93855     16.37660     11.13823         0.002105     -0.002070     -0.004236
    total drift:                                0.082324      0.004314      0.110124

  FREE ENERGIE OF THE ION-ELECTRON SYSTEM (eV)
  free  energy   TOTEN  =      -108.63714502 eV

  energy  without entropy=     -108.63714502  energy(sigma->0) =     -108.63714502

 d Force = 0.3891547E-03[-0.288E-03, 0.107E-02]  d Energy = 0.3971601E-03-0.801E-05
 d Force =-0.7755464E+01[-0.778E+01,-0.773E+01]  d Ewald  =-0.7755459E+01-0.550E-05

 reached required accuracy - stopping structural energy minimisation