 vasp.5.3.5 31Mar14 (build Feb 01 2018 12:10:03) gamma-only

 executed on             LinuxIFC date 2019.03.24  03:57:09

 INCAR:
 POTCAR:    PAW_PBE Ag 02Apr2005
 POTCAR:    PAW_PBE Ag 02Apr2005
   VRHFIN =Ag : s1 d10

   TITEL  = PAW_PBE Ag 02Apr2005
   POMASS =  107.868; ZVAL   =   11.000    mass and valenz
   ENMAX  =  249.844; ENMIN  =  187.383 eV

  PAW_PBE Ag 02Apr2005                  :

 POSCAR: Al46, -146.19767202 <s> Ag </s>
  positions in direct lattice
 exchange correlation table for  LEXCH =        8
   RHO(1)=    0.500       N(1)  =     2000
   RHO(2)=  100.500       N(2)  =     4000

 ion  position               nearest neighbor table
   1  0.648  0.399  0.360-   5 2.76   4 2.76   3 2.78  12 2.86   2 2.93   6 3.08
   2  0.582  0.498  0.308-  13 2.73  14 2.78   3 2.81  28 2.85  12 2.92   1 2.93
   3  0.651  0.512  0.411-  11 2.74   9 2.75   1 2.78   2 2.81   4 2.91  20 2.97  13 2.98  12 3.04

   4  0.660  0.404  0.482-   8 2.73   1 2.76   9 2.83   6 2.87   3 2.91  16 2.91   7 2.98  12 3.22

   5  0.555  0.329  0.322-  15 2.73   1 2.76   6 2.77  14 2.77  12 3.18
   6  0.576  0.317  0.442-   7 2.71   5 2.77  18 2.80   4 2.87  12 2.89  15 2.93   1 3.08
   7  0.592  0.321  0.561-   6 2.71  10 2.77  18 2.82  16 2.86   8 2.87  22 2.90   4 2.98
   8  0.669  0.415  0.603-   4 2.73  10 2.79   9 2.83  23 2.85   7 2.87  24 2.93  16 2.95
   9  0.655  0.519  0.533-  23 2.73  11 2.74   3 2.75   4 2.83   8 2.83  16 2.89  25 2.95  20 2.98
                            19 3.13
  10  0.608  0.341  0.681-   7 2.77  22 2.78   8 2.79  24 2.81
  11  0.649  0.620  0.466-  21 2.68   9 2.74   3 2.74  26 2.88  13 2.92  20 2.94  19 3.03  31 3.11

[...]

  16  0.553  0.441  0.546-   7 2.86  18 2.86   9 2.89  22 2.91   4 2.91  20 2.93  25 2.94   8 2.95
                            29 2.95  24 2.97  12 3.02  32 3.03
  17  0.609  0.599  0.715-  23 2.66  38 2.72  30 2.74  19 2.92  25 3.02  24 3.36
  18  0.478  0.344  0.514-  15 2.77  22 2.78   6 2.80  27 2.80  34 2.82   7 2.82  16 2.86  29 2.92
                            12 3.37
  19  0.648  0.641  0.599-  21 2.72  23 2.84  31 2.85  25 2.86  17 2.92  11 3.03  38 3.12   9 3.13

  20  0.540  0.548  0.474-  36 2.82  35 2.83  12 2.87  25 2.88  16 2.93  11 2.94   3 2.97   9 2.98
                            29 2.99  28 3.00  13 3.00  31 3.15
  21  0.652  0.728  0.516-  11 2.68  19 2.72  31 2.81  26 2.83
  22  0.496  0.366  0.634-  34 2.72  18 2.78  10 2.78  24 2.86   7 2.90  32 2.90  16 2.91
  23  0.681  0.531  0.651-  17 2.66   9 2.73  19 2.84   8 2.85  24 2.99  25 3.21
  24  0.571  0.460  0.676-  30 2.79  10 2.81  25 2.85  22 2.86   8 2.93  16 2.97  32 2.98  23 2.99
                            17 3.36
  25  0.551  0.560  0.601-  32 2.79  38 2.83  24 2.85  19 2.86  20 2.88  31 2.92  36 2.93  16 2.94
                             9 2.95  30 2.98  17 3.02  23 3.21  39 3.55
  26  0.568  0.710  0.425-  31 2.73  13 2.73  40 2.77  35 2.79  21 2.83  11 2.88
  27  0.364  0.359  0.467-  15 2.72  18 2.80  41 2.81  34 2.84  37 2.85  29 2.95  33 2.96
  28  0.473  0.533  0.360-  35 2.73  33 2.76  14 2.83   2 2.85  42 2.86  13 2.88  12 2.91  20 3.00
                            29 3.34
  29  0.439  0.464  0.487-  43 2.87  12 2.88  33 2.88  18 2.92  42 2.93  27 2.95  16 2.95  20 2.99
                            34 3.03  36 3.06  32 3.12  41 3.18  28 3.34  15 3.58
  30  0.498  0.549  0.722-  39 2.65  17 2.74  24 2.79  32 2.82  25 2.98  38 3.09
  31  0.543  0.673  0.537-  26 2.73  38 2.79  21 2.81  44 2.81  19 2.85  40 2.92  25 2.92  36 2.94
                            11 3.11  20 3.15  35 3.18
  32  0.453  0.487  0.623-  34 2.74  25 2.79  30 2.82  43 2.89  22 2.90  39 2.98  24 2.98  36 3.03
                            16 3.03  29 3.12
  33  0.390  0.444  0.370-  41 2.71  14 2.71  28 2.76  15 2.88  29 2.88  27 2.96  42 3.01  12 3.49

  34  0.388  0.390  0.587-  37 2.71  22 2.72  32 2.74  18 2.82  27 2.84  43 2.95  29 3.03
  35  0.468  0.637  0.422-  28 2.73  45 2.78  42 2.78  40 2.78  26 2.79  20 2.83  36 2.86  13 2.90
                            31 3.18
  36  0.441  0.590  0.537-  20 2.82  35 2.86  43 2.87  46 2.88  44 2.90  39 2.92  25 2.93  42 2.93
                            31 2.94  45 3.00  32 3.03  29 3.06
  37  0.274  0.400  0.547-  41 2.71  34 2.71  27 2.85  43 2.96
  38  0.526  0.668  0.660-  17 2.72  31 2.79  25 2.83  44 2.83  39 2.90  30 3.09  19 3.12
  39  0.413  0.607  0.663-  46 2.65  30 2.65  38 2.90  36 2.92  44 2.93  32 2.98  25 3.55  43 3.56

  40  0.462  0.751  0.472-  26 2.77  35 2.78  44 2.80  45 2.80  31 2.92
  41  0.302  0.466  0.450-  42 2.68  33 2.71  37 2.71  27 2.81  43 2.81  29 3.18
  42  0.371  0.561  0.431-  41 2.68  45 2.76  35 2.78  28 2.86  29 2.93  36 2.93  33 3.01  43 3.14

  43  0.344  0.511  0.559-  41 2.81  36 2.87  29 2.87  46 2.89  32 2.89  34 2.95  37 2.96  42 3.14
                            39 3.56
  44  0.434  0.710  0.586-  40 2.80  31 2.81  38 2.83  46 2.84  36 2.90  39 2.93  45 3.11
  45  0.362  0.676  0.473-  42 2.76  46 2.76  35 2.78  40 2.80  36 3.00  44 3.11
  46  0.331  0.636  0.584-  39 2.65  45 2.76  44 2.84  36 2.88  43 2.89

  LATTYP: Found a simple cubic cell.
 ALAT       =    22.5129532146

  Lattice vectors:

 A1 = (  22.5129532146,   0.0000000000,   0.0000000000)
 A2 = (   0.0000000000,  22.5129532146,   0.0000000000)
 A3 = (   0.0000000000,   0.0000000000,  22.5129532146)

Analysis of symmetry for initial positions (statically):
 Subroutine PRICEL returns:
 Original cell was already a primitive cell.

 Routine SETGRP: Setting up the symmetry group for a
 simple cubic supercell.

 Subroutine GETGRP returns: Found  1 space group operations
 (whereof  1 operations were pure point group operations)
 out of a pool of 48 trial point group operations.

The static configuration has the point symmetry C_1 .

Analysis of symmetry for dynamics (positions and initial velocities):
 Subroutine PRICEL returns:
 Original cell was already a primitive cell.

 Routine SETGRP: Setting up the symmetry group for a
 simple cubic supercell.

 Subroutine GETGRP returns: Found  1 space group operations
 (whereof  1 operations were pure point group operations)
 out of a pool of 48 trial point group operations.

The dynamic configuration has the point symmetry C_1 .

Analysis of magnetic symmetry:
 Subroutine PRICEL returns:
 Original cell was already a primitive cell.

 Subroutine MAGSYM returns: Found  1 space group operations
 (whereof  1 operations were pure point group operations)
 out of a pool of  1 trial space group operations
 (whereof  1 operations were pure point group operations)
 and found also     1 'primitive' translations

The magnetic configuration has the point symmetry C_1 .

 KPOINTS: Gamma-point only
  k-points in reciprocal lattice
Space group operators:
 irot       det(A)        alpha          n_x          n_y          n_z        tau_x        tau_y        tau_z
    1     1.000000     0.000000     1.000000     0.000000     0.000000     0.000000     0.000000     0.000000

 I would recommend the setting:
   dimension x,y,z NGX =    87 NGY =   87 NGZ =   87
 SYSTEM =  unknown system
 POSCAR =  Al46, -146.19767202 <s> Ag </s>

 Startparameter for this run:
   NWRITE =      2    write-flag & timer
   PREC   = normal    normal or accurate (medium, high low for compatibility)
   ISTART =      0    job   : 0-new  1-cont  2-samecut
   ICHARG =      2    charge: 1-file 2-atom 10-const
   ISPIN  =      2    spin polarized calculation?
   LNONCOLLINEAR =      F non collinear calculations
   LSORBIT =      F    spin-orbit coupling
   INIWAV =      1    electr: 0-lowe 1-rand  2-diag
   LASPH  =      F    aspherical Exc in radial PAW
   METAGGA=      F    non-selfconsistent MetaGGA calc.

 Electronic Relaxation 1
   ENCUT  =  249.8 eV  18.36 Ry    4.29 a.u.  29.02 29.02 29.02*2*pi/ulx,y,z
   ENINI  =  249.8     initial cutoff
   ENAUG  =  412.5 eV  augmentation charge cutoff
   NELM   =     60;   NELMIN=  2; NELMDL= -5     # of ELM steps
   EDIFF  = 0.1E-03   stopping-criterion for ELM
   LREAL  =      F    real-space projection
   NLSPLINE    = F    spline interpolate recip. space projectors
   LCOMPAT=      F    compatible to vasp.4.4
   GGA_COMPAT  = T    GGA compatible to vasp.4.4-vasp.4.6
   LMAXPAW     = -100 max onsite density
   LMAXMIX     =    2 max onsite mixed and CHGCAR
   VOSKOWN=      0    Vosko Wilk Nusair interpolation
   ROPT   =    0.00000
 Ionic relaxation
   EDIFFG = 0.1E-02   stopping-criterion for IOM
   NSW    =   1000    number of steps for IOM
   NBLOCK =      1;   KBLOCK =   1000    inner block; outer block
   IBRION =      2    ionic relax: 0-MD 1-quasi-New 2-CG
   NFREE  =      1    steps in history (QN), initial steepest desc. (CG)
   ISIF   =      2    stress and relaxation
   IWAVPR =     11    prediction:  0-non 1-charg 2-wave 3-comb
   ISYM   =      2    0-nonsym 1-usesym 2-fastsym
   LCORR  =      T    Harris-Foulkes like correction to forces

   POTIM  = 0.1000    time-step for ionic-motion
   TEIN   =    0.0    initial temperature
   TEBEG  =    0.0;   TEEND  =   0.0 temperature during run
   SMASS  =  -3.00    Nose mass-parameter (am)
   estimated Nose-frequenzy (Omega)   =  0.10E-29 period in steps =****** mass=  -0.116E-25a.u.
   SCALEE = 1.0000    scale energy and forces
   NPACO  =    256;   APACO  = 16.0  distance and # of slots for P.C.
   PSTRESS=    0.0 pullay stress

  Mass of Ions in am
   POMASS = 107.87
  Ionic Valenz
   ZVAL   =  11.00
  Atomic Wigner-Seitz radii
  virtual crystal weights
   VCA    =   1.00
   NELECT =     506.0000    total number of electrons
   NUPDOWN=      -1.0000    fix difference up-down

 DOS related values:
   EMIN   =  10.00;   EMAX   =-10.00  energy-range for DOS
   EFERMI =   0.00
   ISMEAR =     0;   SIGMA  =   0.00  broadening in eV -4-tet -1-fermi 0-gaus

 Electronic relaxation 2 (details)
   IALGO  =     38    algorithm
   LDIAG  =      T    sub-space diagonalisation (order eigenvalues)
   LSUBROT=      F    optimize rotation matrix (better conditioning)
   TURBO    =      0    0=normal 1=particle mesh
   IRESTART =      0    0=no restart 2=restart with 2 vectors
   NREBOOT  =      0    no. of reboots
   NMIN     =      0    reboot dimension
   EREF     =   0.00    reference energy to select bands
   IMIX   =      4    mixing-type and parameters
     AMIX     =   0.40;   BMIX     =  1.00
     AMIX_MAG =   1.60;   BMIX_MAG =  1.00
     AMIN     =   0.10
     WC   =   100.;   INIMIX=   1;  MIXPRE=   1;  MAXMIX= -45

 Intra band minimization:
   WEIMIN = 0.0010     energy-eigenvalue tresh-hold
   EBREAK =  0.76E-07  absolut break condition
   DEPER  =   0.30     relativ break condition

   TIME   =   0.40     timestep for ELM

  volume/ion in A,a.u.               =     248.05      1673.93
  Fermi-wavevector in a.u.,A,eV,Ry     =   0.579463  1.095027  4.568532  0.335778
  Thomas-Fermi vector in A             =   1.623181

 Write flags
   LWAVE  =      F    write WAVECAR
   LCHARG =      F    write CHGCAR
   LVTOT  =      F    write LOCPOT, total local potential
   LVHAR  =      F    write LOCPOT, Hartree potential only
   LELF   =      F    write electronic localiz. function (ELF)
   LORBIT =      0    0 simple, 1 ext, 2 COOP (PROOUT)

 Dipole corrections
[...]
  alpha Z        PSCENC =       157.73658632
  Ewald energy   TEWEN  =    126089.16364698
  -Hartree energ DENC   =   -171943.82841004
  -exchange      EXHF   =         0.00000000
  -V(xc)+E(xc)   XCENC  =      -520.28634839
  PAW double counting   =     49788.42313330   -47753.15905612
  entropy T*S    EENTRO =         0.00000000
  eigenvalues    EBANDS =     -3628.82936973
  atomic energy  EATOM  =     47711.13698397
  free energy    TOTEN  =       -99.64283370 eV

  energy without entropy =      -99.64283370  energy(sigma->0) =      -99.64283370

 average (electrostatic) potential at core
  the test charge radii are     1.1249
  (the norm of the test charge is              1.0000)
       1 -82.1206       2 -82.0355       3 -82.2690       4 -82.1675       5 -82.0633
       6 -82.0636       7 -81.9875       8 -82.0365       9 -82.2000      10 -81.8102
      11 -82.2859      12 -82.3540      13 -82.1432      14 -81.9666      15 -82.1816
      16 -82.2274      17 -81.8781      18 -82.2390      19 -82.0988      20 -82.4798
      21 -81.8331      22 -82.0497      23 -81.9904      24 -82.0588      25 -82.3418
      26 -82.1337      27 -82.0216      28 -82.1771      29 -82.2009      30 -81.9909
      31 -82.2820      32 -82.2462      33 -82.0220      34 -82.0461      35 -82.2504
      36 -82.3366      37 -81.8720      38 -81.8825      39 -82.0883      40 -82.0093
      41 -81.9394      42 -82.1442      43 -82.0879      44 -82.1010      45 -81.9721
      46 -82.0954

 E-fermi :  -3.2589     XC(G=0):  -1.3959     alpha+bet : -0.9254

[...]

 spin component 2

 k-point     1 :       0.0000    0.0000    0.0000
  band No.  band energies     occupation
      1      -9.6772      1.00000
      2      -9.0950      1.00000
      3      -9.0610      1.00000
      4      -8.9922      1.00000
      5      -8.9838      1.00000
      6      -8.9674      1.00000
      7      -8.9267      1.00000
      8      -8.9216      1.00000
      9      -8.9042      1.00000
     10      -8.8946      1.00000
     11      -8.8690      1.00000
     12      -8.8588      1.00000
     13      -8.8084      1.00000
     14      -8.7863      1.00000
     15      -8.7648      1.00000
     16      -8.7234      1.00000
     17      -8.7219      1.00000
     18      -8.7101      1.00000
     19      -8.6724      1.00000
     20      -8.6426      1.00000
     21      -8.6283      1.00000
     22      -8.6083      1.00000
     23      -8.5981      1.00000
     24      -8.5788      1.00000
     25      -8.5574      1.00000
     26      -8.5499      1.00000
     27      -8.5457      1.00000
     28      -8.5389      1.00000
     29      -8.5257      1.00000
     30      -8.5027      1.00000
     31      -8.4907      1.00000
     32      -8.4785      1.00000
     33      -8.4698      1.00000
     34      -8.4321      1.00000
     35      -8.4226      1.00000
     36      -8.4183      1.00000
     37      -8.4033      1.00000
     38      -8.3912      1.00000
     39      -8.3820      1.00000
     40      -8.3623      1.00000
     41      -8.3426      1.00000
     42      -8.3256      1.00000
     43      -8.3072      1.00000
     44      -8.2908      1.00000
     45      -8.2731      1.00000
     46      -8.2633      1.00000
     47      -8.2487      1.00000
     48      -8.2227      1.00000
     49      -8.2114      1.00000
     50      -8.1955      1.00000
     51      -8.1910      1.00000
     52      -8.1593      1.00000
     53      -8.1422      1.00000
     54      -8.1270      1.00000
     55      -8.1218      1.00000
     56      -8.1055      1.00000
     57      -8.0928      1.00000
     58      -8.0837      1.00000
     59      -8.0684      1.00000
     60      -8.0500      1.00000
[...]
    314       1.2059      0.00000
    315       1.2192      0.00000
    316       1.2595      0.00000
    317       1.2775      0.00000
    318       1.3053      0.00000
    319       1.3462      0.00000
    320       1.4003      0.00000
    321       1.4467      0.00000
    322       1.4596      0.00000
    323       1.4706      0.00000
    324       1.4975      0.00000
    325       1.5046      0.00000
    326       1.5265      0.00000
    327       1.5649      0.00000
    328       1.5715      0.00000

[...]

 soft charge-density along one line, spin component           2
         0         1         2         3         4         5         6         7         8         9
 total charge-density along one line

------------------------ aborting loop because EDIFF is reached ----------------------------------------

  FORCE on cell =-STRESS in cart. coord.  units (eV):
  Direction    XX          YY          ZZ          XY          YZ          ZX
  Alpha Z   157.73659   157.73659   157.73659
  Ewald   37753.62816 49151.61032 39183.81172  -238.97167  4172.89005  2573.38290
  Hartree 53271.11032 64035.64431 54637.10311  -247.75517  3922.80219  2390.97880
  E(xc)   -2668.38755 -2667.16491 -2668.16088     0.10033     0.32571     0.31618
  Local  -98582.91025************************   487.50800 -8095.05061 -4965.82934
  n-local  -475.64233  -474.68335  -475.22095    -0.06752     0.83119     1.19024
  augment  4228.19652  4225.09234  4227.78155    -0.31381    -0.56725    -0.06403
  Kinetic  6299.11075  6292.30417  6298.69401    -0.61135    -1.14881    -0.07178
  Fock        0.00000     0.00000     0.00000     0.00000     0.00000     0.00000
  Total     -17.15778   -17.13378   -17.74785    -0.11119     0.08247    -0.09704
  in kB      -2.40921    -2.40584    -2.49206    -0.01561     0.01158    -0.01363

 VOLUME and BASIS-vectors are now :
  energy-cutoff  :      249.84
  volume of cell :    11410.31
      direct lattice vectors                 reciprocal lattice vectors
    22.512953215  0.000000000  0.000000000     0.044418873  0.000000000  0.000000000
     0.000000000 22.512953215  0.000000000     0.000000000  0.044418873  0.000000000
     0.000000000  0.000000000 22.512953215     0.000000000  0.000000000  0.044418873

  length of vectors
    22.512953215 22.512953215 22.512953215     0.044418873  0.044418873  0.044418873

 FORCES acting on ions
    electron-ion (+dipol)            ewald-force                    non-local-force                 convergence-correction
   -.128E+04 0.697E+03 0.101E+04   0.128E+04 -.695E+03 -.100E+04   0.367E+01 -.201E+01 -.218E+01   -.152E-02 -.210E-02 -.938E-03
   -.583E+03 -.987E+02 0.162E+04   0.582E+03 0.994E+02 -.162E+04   0.101E+01 -.713E+00 -.297E+01   -.205E-02 -.237E-02 -.329E-03
   -.146E+04 -.138E+03 0.839E+03   0.145E+04 0.138E+03 -.837E+03   0.223E+01 0.230E+00 -.180E+01   -.321E-02 -.707E-03 -.198E-02
   -.145E+04 0.794E+03 0.179E+03   0.145E+04 -.793E+03 -.177E+03   0.163E+01 -.106E+01 -.106E+01   0.183E-02 -.218E-02 -.453E-04
   -.234E+03 0.110E+04 0.131E+04   0.233E+03 -.110E+04 -.131E+04   0.139E+01 -.271E+01 -.292E+01   -.260E-02 -.278E-02 -.794E-04
   -.508E+03 0.160E+04 0.454E+03   0.507E+03 -.159E+04 -.452E+03   0.754E+00 -.372E+01 -.152E+01   0.197E-02 -.261E-02 -.108E-02
   -.652E+03 0.154E+04 -.317E+03   0.652E+03 -.153E+04 0.316E+03   0.773E-01 -.285E+01 0.948E+00   0.294E-02 -.599E-04 -.190E-02
   -.141E+04 0.667E+03 -.683E+03   0.141E+04 -.665E+03 0.682E+03   0.209E+01 -.173E+01 0.106E+01   0.405E-02 -.637E-03 -.100E-02
   -.153E+04 -.688E+02 -.110E+03   0.153E+04 0.679E+02 0.109E+03   0.979E+00 0.888E+00 0.486E+00   0.104E-02 0.791E-03 0.619E-03
   -.577E+03 0.108E+04 -.114E+04   0.576E+03 -.108E+04 0.114E+04   0.182E+01 -.344E+01 0.443E+01   0.249E-02 -.520E-03 -.185E-02
   -.137E+04 -.736E+03 0.495E+03   0.137E+04 0.735E+03 -.493E+03   0.205E+01 0.116E+01 -.131E+01   -.972E-03 -.395E-04 -.765E-03
   -.298E+03 0.544E+03 0.667E+03   0.297E+03 -.543E+03 -.666E+03   0.109E+01 -.782E+00 -.138E+01   0.151E-03 -.114E-02 -.524E-03
   -.596E+03 -.801E+03 0.143E+04   0.595E+03 0.799E+03 -.142E+04   0.997E+00 0.173E+01 -.271E+01   0.130E-02 0.274E-03 -.213E-02
   0.493E+03 0.303E+03 0.162E+04   -.491E+03 -.303E+03 -.161E+04   -.221E+01 0.824E+00 -.407E+01   0.714E-03 -.391E-03 0.181E-02
   0.613E+03 0.129E+04 0.874E+03   -.613E+03 -.129E+04 -.873E+03   -.324E+00 -.229E+01 -.132E+01   0.185E-02 0.708E-03 -.219E-02
   -.301E+03 0.537E+03 -.349E+03   0.301E+03 -.536E+03 0.349E+03   0.705E-01 -.792E+00 0.280E+00   0.205E-02 0.272E-03 0.187E-02
   -.666E+03 -.781E+03 -.140E+04   0.664E+03 0.779E+03 0.140E+04   0.250E+01 0.142E+01 0.374E+01   0.137E-02 -.110E-02 0.142E-02
   0.331E+03 0.153E+04 -.612E+02   -.331E+03 -.153E+04 0.617E+02   -.179E+00 -.216E+01 -.458E+00   0.280E-02 -.158E-02 -.557E-03
   -.128E+04 -.898E+03 -.600E+03   0.128E+04 0.897E+03 0.599E+03   0.210E+01 0.119E+01 0.114E+01   0.240E-02 -.117E-02 0.385E-03
   -.331E+03 -.312E+03 0.335E+03   0.330E+03 0.312E+03 -.334E+03   0.401E+00 0.430E+00 -.736E+00   -.178E-03 -.561E-03 0.721E-03
   -.971E+03 -.135E+04 -.781E+02   0.969E+03 0.134E+04 0.772E+02   0.195E+01 0.596E+01 0.917E+00   0.100E-02 0.295E-04 0.393E-03
   0.321E+03 0.126E+04 -.109E+04   -.321E+03 -.126E+04 0.109E+04   0.952E-01 -.242E+01 0.226E+01   0.223E-02 0.361E-03 -.180E-03
   -.136E+04 -.703E+02 -.111E+04   0.135E+04 0.705E+02 0.110E+04   0.264E+01 -.239E+00 0.328E+01   0.859E-03 -.167E-03 0.748E-03
   -.342E+03 0.444E+03 -.153E+04   0.341E+03 -.443E+03 0.153E+04   0.809E+00 -.113E+00 0.210E+01   0.116E-02 0.625E-03 0.141E-02
   -.336E+03 -.356E+03 -.753E+03   0.335E+03 0.356E+03 0.752E+03   0.747E+00 0.834E+00 0.835E+00   -.199E-02 0.179E-02 0.278E-02
   -.518E+03 -.135E+04 0.914E+03   0.517E+03 0.135E+04 -.911E+03   0.162E+01 0.276E+01 -.273E+01   0.604E-03 0.147E-02 -.245E-02
   0.116E+04 0.120E+04 0.355E+03   -.116E+04 -.119E+04 -.355E+03   -.241E+01 -.199E+01 -.549E+00   -.308E-03 0.311E-02 -.631E-04
   0.384E+03 -.379E+03 0.135E+04   -.384E+03 0.379E+03 -.135E+04   0.690E-01 -.556E+00 -.741E+00   0.244E-02 -.739E-02 0.249E-02
   0.619E+03 0.340E+03 0.192E+03   -.617E+03 -.340E+03 -.192E+03   -.151E+01 -.534E-01 0.308E+00   0.179E-02 0.840E-03 -.440E-03
   0.274E+03 -.160E+03 -.172E+04   -.273E+03 0.161E+03 0.171E+04   -.121E+01 -.990E+00 0.437E+01   0.110E-02 0.783E-03 -.384E-03
   -.259E+03 -.122E+04 -.271E+03   0.258E+03 0.122E+04 0.271E+03   0.877E+00 0.368E+00 -.473E+00   0.113E-02 -.131E-02 -.885E-04
   0.606E+03 0.371E+03 -.119E+04   -.606E+03 -.370E+03 0.119E+04   -.293E+00 -.844E+00 -.358E+00   -.621E-03 0.194E-02 0.101E-02
   0.122E+04 0.272E+03 0.121E+04   -.122E+04 -.272E+03 -.121E+04   -.204E+01 -.838E+00 -.273E+01   0.448E-03 0.575E-03 -.102E-02
   0.896E+03 0.113E+04 -.810E+03   -.895E+03 -.112E+04 0.809E+03   -.176E+01 -.143E+01 0.110E+01   -.105E-02 0.233E-03 0.120E-02
   0.339E+03 -.101E+04 0.100E+04   -.338E+03 0.101E+04 -.100E+04   -.625E-01 0.142E+01 -.452E+00   0.123E-02 -.254E-02 -.789E-04
   0.558E+03 -.458E+03 -.212E+03   -.557E+03 0.457E+03 0.213E+03   -.107E+01 0.117E+01 -.448E+00   -.160E-02 -.136E-02 -.239E-02
   0.143E+04 0.700E+03 -.429E+03   -.143E+04 -.697E+03 0.427E+03   -.555E+01 -.252E+01 0.191E+01   -.137E-02 0.160E-03 -.123E-02
   0.151E+03 -.126E+04 -.115E+04   -.153E+03 0.125E+04 0.115E+04   0.120E+01 0.250E+01 0.103E+01   0.483E-03 -.424E-02 -.652E-03
   0.106E+04 -.558E+03 -.128E+04   -.106E+04 0.557E+03 0.128E+04   -.184E+01 0.102E+01 0.329E+01   -.436E-03 -.120E-03 0.539E-03
   0.257E+03 -.164E+04 0.271E+03   -.257E+03 0.163E+04 -.271E+03   -.226E-01 0.524E+01 -.208E+00   -.740E-03 -.105E-02 -.174E-02
   0.163E+04 0.380E+02 0.361E+03   -.163E+04 -.373E+02 -.361E+03   -.236E+01 -.681E+00 -.712E+00   -.404E-02 0.134E-02 -.136E-02
   0.117E+04 -.564E+03 0.952E+03   -.117E+04 0.564E+03 -.951E+03   -.129E+01 0.517E+00 -.959E+00   -.176E-02 -.114E-02 0.140E-02
   0.133E+04 0.942E+02 -.884E+03   -.133E+04 -.935E+02 0.884E+03   -.156E+01 -.724E+00 0.407E+00   -.209E-02 0.307E-03 -.130E-02
   0.782E+03 -.138E+04 -.579E+03   -.780E+03 0.137E+04 0.580E+03   -.275E+01 0.199E+01 -.772E+00   -.178E-02 -.220E-02 0.302E-02
   0.112E+04 -.121E+04 0.561E+03   -.112E+04 0.120E+04 -.559E+03   -.293E+01 0.356E+01 -.210E+01   -.262E-02 -.379E-02 -.156E-02
   0.156E+04 -.719E+03 -.249E+03   -.155E+04 0.717E+03 0.247E+03   -.318E+01 0.184E+01 0.182E+01   -.228E-02 -.114E-02 0.280E-03
   -.444E+00 0.526E+00 0.195E+01   -.682E-12 -.205E-11 0.108E-11   0.327E+00 -.620E+00 -.193E+01   0.821E-02 -.308E-01 -.821E-02

 POSITION                                       TOTAL-FORCE (eV/Angst)
     14.78364      8.88327      8.08843         0.007154      0.004389      0.003197
     13.02278     10.88747      6.94310         0.000697      0.005746      0.002862
     14.68350     11.44774      9.26672         0.004878     -0.000483      0.006537
     14.79850      9.07119     10.91865        -0.004617     -0.003687      0.005509
     12.35578      7.97232      7.11453         0.008726      0.007133      0.000438
     13.09607      7.05224      9.75431        -0.006057      0.003110      0.001512
     13.50921      7.21279     12.58454        -0.008034     -0.001183      0.004899
     15.00403      9.36857     13.72900        -0.007568     -0.007007      0.007075
     14.87445     11.64239     12.10070         0.000701     -0.006217      0.002247
     13.79882      7.53634     15.40603        -0.008149     -0.000761      0.006539
     14.61417     14.00848     10.58454         0.006821     -0.003530      0.007227
     12.36178      9.69843      9.45891        -0.004430      0.008821     -0.005141
     13.03831     13.47608      8.16446         0.001836     -0.002116      0.005256
     10.40355      9.79014      6.47486         0.009899     -0.001338      0.002808
     10.09278      8.13995      8.74806         0.004627     -0.004575     -0.009475
     12.41892      9.99649     12.40134        -0.008634     -0.005739     -0.009548
     13.61416     14.06766     15.96386        -0.006649     -0.002855     -0.000754
     10.89047      7.79450     11.42328        -0.007614     -0.000671     -0.002703
     14.80068     14.32761     13.40547        -0.002276     -0.000115      0.004064
     12.34341     12.28145     10.70810        -0.005652     -0.002048      0.002145
     14.72511     16.53106     11.72712         0.001336     -0.001023      0.003085
     11.31864      8.06711     14.27431        -0.002776     -0.003014     -0.002696
     15.08570     11.92922     14.87464         0.000199     -0.004383      0.001331
     12.83456     10.22784     15.37925        -0.002089     -0.000677     -0.003984
     12.53318     12.60536     13.68315         0.001629     -0.006122     -0.003822
     13.04042     16.06388      9.52097         0.001495     -0.003952      0.002328
      7.95885      8.38063     10.51329        -0.004266     -0.010710     -0.001411
     10.70346     11.88756      8.28535        -0.001847      0.007592     -0.010090
      9.93499     10.43737     10.77622        -0.005948      0.001809     -0.003850
     11.27925     12.54027     16.21044         0.001965     -0.004326     -0.004333
     12.26398     15.03602     12.10337         0.003578     -0.001400      0.000655
     10.31631     10.77652     14.20021         0.005885     -0.001595     -0.000318
      8.29632     10.30918      8.38897         0.000352     -0.002696     -0.005063
      8.83860      8.58469     13.15849        -0.005459     -0.001379     -0.004161
     10.74023     14.45764      9.54714        -0.005487      0.008364      0.003120
     10.06690     12.89568     12.11291         0.010816     -0.008567     -0.001103
      6.14563      9.01341     12.55859         0.004711      0.004406      0.000104
     11.25535     15.03130     14.88300        -0.003783      0.004238     -0.000671
      9.00581     13.33373     14.60536        -0.002914      0.004039     -0.001223
     10.69080     16.99966     10.76448         0.006978      0.005492      0.000202
      6.76252     11.00744     10.69941         0.010302     -0.005403      0.004250
      8.43113     12.87681      9.54916        -0.002258      0.008476      0.001592
      7.72991     11.18766     13.30640        -0.000767     -0.000401      0.000958
      9.48641     15.58623     12.86534         0.004798      0.005868     -0.002619
      8.28932     15.57817     10.30350         0.001138      0.011121     -0.002728
      7.33667     13.59824     12.02374         0.006753      0.007371     -0.004244
    total drift:                               -0.108578     -0.124581      0.016799

  FREE ENERGIE OF THE ION-ELECTRON SYSTEM (eV)
  free  energy   TOTEN  =       -99.64283370 eV

  energy  without entropy=      -99.64283370  energy(sigma->0) =      -99.64283370

 d Force =-0.3874848E-04[-0.119E-03, 0.419E-04]  d Energy =-0.9460205E-04 0.559E-04
 d Force = 0.1373626E+01[ 0.137E+01, 0.137E+01]  d Ewald  = 0.1373625E+01 0.104E-05

 reached required accuracy - stopping structural energy minimisation