 vasp.5.3.5 31Mar14 (build Feb 01 2018 12:10:03) gamma-only

 executed on             LinuxIFC date 2019.03.23  16:28:18

 INCAR:
 POTCAR:    PAW_PBE Ag 02Apr2005
 POTCAR:    PAW_PBE Ag 02Apr2005
   VRHFIN =Ag : s1 d10

   TITEL  = PAW_PBE Ag 02Apr2005
   POMASS =  107.868; ZVAL   =   11.000    mass and valenz
   ENMAX  =  249.844; ENMIN  =  187.383 eV

  PAW_PBE Ag 02Apr2005                  :

 POSCAR: Pt43, -217.68301425 <s> Ag </s>
  positions in direct lattice
 exchange correlation table for  LEXCH =        8
   RHO(1)=    0.500       N(1)  =     2000
   RHO(2)=  100.500       N(2)  =     4000

 ion  position               nearest neighbor table
   1  0.477  0.702  0.469-  13 2.70  11 2.76   9 2.77   5 2.77   2 2.78   3 2.83  10 2.90
   2  0.372  0.667  0.406-   3 2.72   4 2.76   9 2.77   1 2.78   7 2.78  13 3.53
   3  0.482  0.632  0.359-   6 2.68   2 2.72   4 2.74   5 2.79   1 2.83   8 2.84  13 3.44
   4  0.397  0.544  0.389-  12 2.72   3 2.74   2 2.76   8 2.77   7 2.78  15 2.79  20 2.98  13 3.14

   5  0.590  0.666  0.421-  18 2.75  11 2.75   1 2.77   3 2.79   6 2.81  16 2.82  14 2.91
   6  0.591  0.597  0.311-   3 2.68  14 2.76  17 2.77   8 2.79   5 2.81
   7  0.332  0.582  0.493-   9 2.71  12 2.72  21 2.74   2 2.78   4 2.78  24 2.86  13 2.94
   8  0.497  0.508  0.318-  20 2.76   4 2.77   6 2.79  19 2.81  17 2.83   3 2.84  15 3.00
   9  0.366  0.696  0.530-  10 2.70   7 2.71   1 2.77   2 2.77  24 2.83  13 3.29
  10  0.467  0.694  0.602-  23 2.69   9 2.70  11 2.74  24 2.78  32 2.87   1 2.90  13 3.11  28 3.58

  11  0.579  0.690  0.545-  10 2.74   5 2.75  16 2.76   1 2.76  23 2.79  25 2.85  18 3.24  28 3.27
                            13 3.45
  12  0.317  0.466  0.446-   4 2.72  26 2.72   7 2.72  15 2.78  21 2.80
  13  0.466  0.585  0.509-  30 2.68   1 2.70  28 2.72  20 2.76  24 2.87   7 2.94  18 3.10  10 3.11
                             4 3.14   9 3.29   3 3.44  11 3.45   2 3.53
  14  0.690  0.582  0.390-  17 2.72   6 2.76  18 2.80  16 2.81  22 2.82   5 2.91  27 3.59
  15  0.419  0.417  0.387-  20 2.73  19 2.75  12 2.78   4 2.79  26 2.80  33 2.87   8 3.00
  16  0.691  0.649  0.501-  27 2.75  11 2.76  25 2.76  18 2.77  14 2.81   5 2.82
  17  0.618  0.483  0.362-  14 2.72  19 2.74  31 2.75   6 2.77  22 2.83   8 2.83  20 2.93  18 3.09

  18  0.604  0.557  0.483-  28 2.72  20 2.72   5 2.75  16 2.77  27 2.80  29 2.80  14 2.80  17 3.09
                            13 3.10  11 3.24  22 3.32  25 3.51
  19  0.536  0.388  0.346-  17 2.74  15 2.75  33 2.75  31 2.78   8 2.81  20 3.03
  20  0.509  0.485  0.443-  18 2.72  29 2.72  15 2.73  30 2.74  13 2.76   8 2.76  17 2.93   4 2.98
                            19 3.03  33 3.11  31 3.40
  21  0.333  0.484  0.573-   7 2.74  30 2.77  12 2.80  24 2.81  36 2.81  34 2.85  26 2.91
  22  0.720  0.466  0.441-  27 2.70  31 2.76  14 2.82  17 2.83  37 2.86  18 3.32
  23  0.569  0.693  0.673-  10 2.69  35 2.75  25 2.77  11 2.79  32 2.81  28 3.51
  24  0.384  0.596  0.612-  34 2.76  32 2.76  10 2.78  21 2.81   9 2.83   7 2.86  13 2.87  30 3.39

[...]

  28  0.551  0.552  0.596-  29 2.71  32 2.71  18 2.72  13 2.72  30 2.77  25 2.87  39 2.90  41 2.97
                            35 3.24  11 3.27  23 3.51  10 3.58
  29  0.577  0.444  0.539-  37 2.64  30 2.65  28 2.71  40 2.72  20 2.72  18 2.80  31 2.81  42 2.89
                            38 3.16  39 3.21  33 3.23  27 3.54
  30  0.459  0.471  0.558-  29 2.65  13 2.68  34 2.73  20 2.74  26 2.76  21 2.77  28 2.77  38 2.90
                            36 3.23  24 3.39  33 3.60
  31  0.626  0.381  0.437-  17 2.75  22 2.76  42 2.76  19 2.78  29 2.81  33 2.87  37 3.02  20 3.40

  32  0.484  0.598  0.692-  28 2.71  24 2.76  34 2.78  23 2.81  35 2.81  41 2.86  10 2.87
  33  0.501  0.343  0.460-  38 2.74  19 2.75  26 2.80  42 2.83  15 2.87  31 2.87  20 3.11  29 3.23
                            30 3.60
  34  0.416  0.490  0.674-  30 2.73  24 2.76  32 2.78  36 2.79  43 2.83  21 2.85  41 2.88
  35  0.607  0.587  0.730-  41 2.69  25 2.74  23 2.75  32 2.81  39 2.83  28 3.24
  36  0.372  0.377  0.633-  38 2.72  43 2.76  26 2.77  34 2.79  21 2.81  30 3.23
  37  0.692  0.408  0.556-  29 2.64  27 2.74  22 2.86  39 2.90  42 2.94  40 2.96  31 3.02
  38  0.483  0.342  0.585-  36 2.72  33 2.74  43 2.74  42 2.75  26 2.82  30 2.90  40 2.92  29 3.16

[...]

  40  0.594  0.384  0.648-  29 2.72  39 2.78  42 2.79  41 2.80  43 2.84  38 2.92  37 2.96
  41  0.543  0.482  0.714-  43 2.66  35 2.69  40 2.80  39 2.84  32 2.86  34 2.88  28 2.97
  42  0.598  0.312  0.541-  38 2.75  31 2.76  40 2.79  33 2.83  29 2.89  37 2.94
  43  0.477  0.379  0.706-  41 2.66  38 2.74  36 2.76  34 2.83  40 2.84

  LATTYP: Found a simple cubic cell.
 ALAT       =    21.6932048949

  Lattice vectors:

 A1 = (  21.6932048949,   0.0000000000,   0.0000000000)
 A2 = (   0.0000000000,  21.6932048949,   0.0000000000)
 A3 = (   0.0000000000,   0.0000000000,  21.6932048949)

Analysis of symmetry for initial positions (statically):
 Subroutine PRICEL returns:
 Original cell was already a primitive cell.

 Routine SETGRP: Setting up the symmetry group for a
 simple cubic supercell.

 Subroutine GETGRP returns: Found  1 space group operations
 (whereof  1 operations were pure point group operations)
 out of a pool of 48 trial point group operations.

The static configuration has the point symmetry C_1 .

Analysis of symmetry for dynamics (positions and initial velocities):
 Subroutine PRICEL returns:
 Original cell was already a primitive cell.

 Routine SETGRP: Setting up the symmetry group for a
 simple cubic supercell.

 Subroutine GETGRP returns: Found  1 space group operations
 (whereof  1 operations were pure point group operations)
 out of a pool of 48 trial point group operations.

The dynamic configuration has the point symmetry C_1 .

Analysis of magnetic symmetry:
 Subroutine PRICEL returns:
 Original cell was already a primitive cell.

 Subroutine MAGSYM returns: Found  1 space group operations
 (whereof  1 operations were pure point group operations)
 out of a pool of  1 trial space group operations
 (whereof  1 operations were pure point group operations)
 and found also     1 'primitive' translations

The magnetic configuration has the point symmetry C_1 .

 KPOINTS: Gamma-point only
  k-points in reciprocal lattice
Space group operators:
 irot       det(A)        alpha          n_x          n_y          n_z        tau_x        tau_y        tau_z
    1     1.000000     0.000000     1.000000     0.000000     0.000000     0.000000     0.000000     0.000000

 I would recommend the setting:
   dimension x,y,z NGX =    84 NGY =   84 NGZ =   84
 SYSTEM =  unknown system
 POSCAR =  Pt43, -217.68301425 <s> Ag </s>

 Startparameter for this run:
   NWRITE =      2    write-flag & timer
   PREC   = normal    normal or accurate (medium, high low for compatibility)
   ISTART =      0    job   : 0-new  1-cont  2-samecut
   ICHARG =      2    charge: 1-file 2-atom 10-const
   ISPIN  =      2    spin polarized calculation?
   LNONCOLLINEAR =      F non collinear calculations
   LSORBIT =      F    spin-orbit coupling
   INIWAV =      1    electr: 0-lowe 1-rand  2-diag
   LASPH  =      F    aspherical Exc in radial PAW
   METAGGA=      F    non-selfconsistent MetaGGA calc.

 Electronic Relaxation 1
   ENCUT  =  249.8 eV  18.36 Ry    4.29 a.u.  27.96 27.96 27.96*2*pi/ulx,y,z
   ENINI  =  249.8     initial cutoff
   ENAUG  =  412.5 eV  augmentation charge cutoff
   NELM   =     60;   NELMIN=  2; NELMDL= -5     # of ELM steps
   EDIFF  = 0.1E-03   stopping-criterion for ELM
   LREAL  =      F    real-space projection
   NLSPLINE    = F    spline interpolate recip. space projectors
   LCOMPAT=      F    compatible to vasp.4.4
   GGA_COMPAT  = T    GGA compatible to vasp.4.4-vasp.4.6
   LMAXPAW     = -100 max onsite density
   LMAXMIX     =    2 max onsite mixed and CHGCAR
   VOSKOWN=      0    Vosko Wilk Nusair interpolation
   ROPT   =    0.00000
 Ionic relaxation
   EDIFFG = 0.1E-02   stopping-criterion for IOM
   NSW    =   1000    number of steps for IOM
   NBLOCK =      1;   KBLOCK =   1000    inner block; outer block
   IBRION =      2    ionic relax: 0-MD 1-quasi-New 2-CG
   NFREE  =      1    steps in history (QN), initial steepest desc. (CG)
   ISIF   =      2    stress and relaxation
   IWAVPR =     11    prediction:  0-non 1-charg 2-wave 3-comb
   ISYM   =      2    0-nonsym 1-usesym 2-fastsym
   LCORR  =      T    Harris-Foulkes like correction to forces

   POTIM  = 0.1000    time-step for ionic-motion
   TEIN   =    0.0    initial temperature
   TEBEG  =    0.0;   TEEND  =   0.0 temperature during run
   SMASS  =  -3.00    Nose mass-parameter (am)
   estimated Nose-frequenzy (Omega)   =  0.10E-29 period in steps =****** mass=  -0.108E-25a.u.
   SCALEE = 1.0000    scale energy and forces
   NPACO  =    256;   APACO  = 16.0  distance and # of slots for P.C.
   PSTRESS=    0.0 pullay stress

  Mass of Ions in am
   POMASS = 107.87
  Ionic Valenz
   ZVAL   =  11.00
  Atomic Wigner-Seitz radii
  virtual crystal weights
   VCA    =   1.00
   NELECT =     473.0000    total number of electrons
   NUPDOWN=      -1.0000    fix difference up-down

 DOS related values:
   EMIN   =  10.00;   EMAX   =-10.00  energy-range for DOS
   EFERMI =   0.00
   ISMEAR =     0;   SIGMA  =   0.00  broadening in eV -4-tet -1-fermi 0-gaus

 Electronic relaxation 2 (details)
   IALGO  =     38    algorithm
   LDIAG  =      T    sub-space diagonalisation (order eigenvalues)
   LSUBROT=      F    optimize rotation matrix (better conditioning)
   TURBO    =      0    0=normal 1=particle mesh
   IRESTART =      0    0=no restart 2=restart with 2 vectors
   NREBOOT  =      0    no. of reboots
   NMIN     =      0    reboot dimension
   EREF     =   0.00    reference energy to select bands
   IMIX   =      4    mixing-type and parameters
     AMIX     =   0.40;   BMIX     =  1.00
     AMIX_MAG =   1.60;   BMIX_MAG =  1.00
     AMIN     =   0.10
     WC   =   100.;   INIMIX=   1;  MIXPRE=   1;  MAXMIX= -45

 Intra band minimization:
   WEIMIN = 0.0010     energy-eigenvalue tresh-hold
   EBREAK =  0.81E-07  absolut break condition
   DEPER  =   0.30     relativ break condition

   TIME   =   0.40     timestep for ELM

  volume/ion in A,a.u.               =     237.41      1602.14
  Fermi-wavevector in a.u.,A,eV,Ry     =   0.587992  1.111144  4.704006  0.345735
  Thomas-Fermi vector in A             =   1.635082

 Write flags
   LWAVE  =      F    write WAVECAR
   LCHARG =      F    write CHGCAR
   LVTOT  =      F    write LOCPOT, total local potential
   LVHAR  =      F    write LOCPOT, Hartree potential only
   LELF   =      F    write electronic localiz. function (ELF)
   LORBIT =      0    0 simple, 1 ext, 2 COOP (PROOUT)

 Dipole corrections
   LMONO  =      F    monopole corrections only (constant potential shift)
   LDIPOL =      F    correct potential (dipole corrections)
   IDIPOL =      0    1-x, 2-y, 3-z, 4-all directions
   EPSILON=  1.0000000 bulk dielectric constant

 Exchange correlation treatment:
   GGA     =    PE    GGA type
   VOSKOWN=      0    Vosko Wilk Nusair interpolation
   LHFCALC =     F    Hartree Fock is set to
   LHFONE  =     F    Hartree Fock one center treatment
[...]
 number of electron     473.0002001 magnetization       1.0000000
 augmentation part      226.8852887 magnetization      -0.0190804

 Broyden mixing:
  rms(total) = 0.14988E-02    rms(broyden)= 0.14579E-02
  rms(prec ) = 0.15058E-02
  weight for this iteration     100.00

[...]

----------------------------------------- Iteration   61(   2)  ---------------------------------------

 eigenvalue-minimisations  :  1228
 total energy-change (2. order) :-0.8976186E-04  (-0.8260844E-04)
 number of electron     473.0002001 magnetization       1.0000000
 augmentation part      226.8852887 magnetization      -0.0190804

 Free energy of the ion-electron system (eV)
  alpha Z        PSCENC =       154.05646820
  Ewald energy   TEWEN  =    110849.23160023
  -Hartree energ DENC   =   -153716.73406377
  -exchange      EXHF   =         0.00000000
  -V(xc)+E(xc)   XCENC  =      -486.43363992
  PAW double counting   =     46553.04637310   -44650.44585222
  entropy T*S    EENTRO =         0.00000000
  eigenvalues    EBANDS =     -3395.04775961
  atomic energy  EATOM  =     44599.54109371
  free energy    TOTEN  =       -92.78578029 eV

  energy without entropy =      -92.78578029  energy(sigma->0) =      -92.78578029

 average (electrostatic) potential at core
  the test charge radii are     1.1249
  (the norm of the test charge is              1.0000)
       1 -82.1116       2 -81.9858       3 -82.0584       4 -82.2524       5 -82.1026
       6 -81.7964       7 -82.2654       8 -82.0960       9 -82.1418      10 -82.1599
      11 -82.2225      12 -82.0160      13 -82.2221      14 -82.0609      15 -82.1701
      16 -82.1411      17 -82.0432      18 -82.2395      19 -82.1919      20 -82.2986
      21 -82.0783      22 -81.9221      23 -81.8652      24 -82.2664      25 -82.1184
      26 -82.0591      27 -82.0637      28 -82.1675      29 -82.3173      30 -82.2516
      31 -82.1709      32 -82.0184      33 -82.2657      34 -82.1553      35 -81.9062
      36 -81.8454      37 -82.0897      38 -82.1756      39 -82.2006      40 -82.1436
      41 -82.1484      42 -82.0966      43 -81.8060

 E-fermi :  -3.1276     XC(G=0):  -1.4569     alpha+bet : -0.9668

[...]

 spin component 2

 k-point     1 :       0.0000    0.0000    0.0000
  band No.  band energies     occupation
      1      -9.6252      1.00000
      2      -9.0731      1.00000
      3      -9.0374      1.00000
      4      -8.9814      1.00000
      5      -8.9284      1.00000
      6      -8.9115      1.00000
      7      -8.9055      1.00000
      8      -8.8567      1.00000
      9      -8.8465      1.00000
     10      -8.8163      1.00000
     11      -8.7876      1.00000
     12      -8.7747      1.00000
     13      -8.7602      1.00000
     14      -8.7580      1.00000
     15      -8.7255      1.00000
     16      -8.6935      1.00000
     17      -8.6875      1.00000
     18      -8.6624      1.00000
     19      -8.6341      1.00000
     20      -8.6293      1.00000
     21      -8.6057      1.00000
     22      -8.6007      1.00000
     23      -8.5733      1.00000
     24      -8.5537      1.00000
     25      -8.5514      1.00000
     26      -8.5431      1.00000
     27      -8.5144      1.00000
     28      -8.5040      1.00000
     29      -8.4843      1.00000
     30      -8.4806      1.00000
     31      -8.4724      1.00000
     32      -8.4385      1.00000
     33      -8.4220      1.00000
     34      -8.4181      1.00000
     35      -8.3943      1.00000
     36      -8.3706      1.00000
     37      -8.3625      1.00000
     38      -8.3393      1.00000
     39      -8.3346      1.00000
     40      -8.3319      1.00000
     41      -8.3172      1.00000
     42      -8.3063      1.00000
     43      -8.2903      1.00000
     44      -8.2865      1.00000
     45      -8.2704      1.00000
     46      -8.2655      1.00000
     47      -8.2335      1.00000
     48      -8.2310      1.00000
     49      -8.2104      1.00000
     50      -8.1969      1.00000
     51      -8.1880      1.00000
     52      -8.1801      1.00000
     53      -8.1598      1.00000
     54      -8.1522      1.00000
     55      -8.1366      1.00000
     56      -8.1161      1.00000
     57      -8.1134      1.00000
     58      -8.0885      1.00000
     59      -8.0648      1.00000
     60      -8.0443      1.00000
[...]
    294       1.2535      0.00000
    295       1.2899      0.00000
    296       1.3128      0.00000
    297       1.3196      0.00000
    298       1.3340      0.00000
    299       1.3410      0.00000
    300       1.3562      0.00000
    301       1.4743      0.00000
    302       1.4834      0.00000
    303       1.5144      0.00000
    304       1.5483      0.00000
    305       1.5529      0.00000
    306       1.5910      0.00000
    307       1.6038      0.00000
    308       1.6275      0.00000

[...]

 soft charge-density along one line, spin component           2
         0         1         2         3         4         5         6         7         8         9
 total charge-density along one line

------------------------ aborting loop because EDIFF is reached ----------------------------------------

  FORCE on cell =-STRESS in cart. coord.  units (eV):
  Direction    XX          YY          ZZ          XY          YZ          ZX
  Alpha Z   154.05647   154.05647   154.05647
  Ewald   36649.64266 35203.56568 38995.92003  2556.47345 -2415.87172 -1024.52661
  Hartree 50928.38583 49656.33865 53132.01863  2406.75792 -2247.10876  -991.40296
  E(xc)   -2493.67605 -2494.16025 -2493.44690     0.15233    -0.23683     0.05347
  Local  -94643.70078-91930.37419-99193.45022 -4965.71974  4665.96045  2017.77303
  n-local  -444.40470  -444.37992  -443.59121     1.34203    -1.51784    -0.47880
  augment  3951.04879  3952.61588  3950.77882     0.08222    -0.25013    -0.17515
  Kinetic  5884.02855  5888.02371  5883.74037     0.82908    -1.14951    -0.82106
  Fock        0.00000     0.00000     0.00000     0.00000     0.00000     0.00000
  Total     -14.61923   -14.31396   -13.97400    -0.08270    -0.17433     0.42191
  in kB      -2.29437    -2.24646    -2.19311    -0.01298    -0.02736     0.06622

 VOLUME and BASIS-vectors are now :
  energy-cutoff  :      249.84
  volume of cell :    10208.72
      direct lattice vectors                 reciprocal lattice vectors
    21.693204895  0.000000000  0.000000000     0.046097384  0.000000000  0.000000000
     0.000000000 21.693204895  0.000000000     0.000000000  0.046097384  0.000000000
     0.000000000  0.000000000 21.693204895     0.000000000  0.000000000  0.046097384

  length of vectors
    21.693204895 21.693204895 21.693204895     0.046097384  0.046097384  0.046097384

 FORCES acting on ions
    electron-ion (+dipol)            ewald-force                    non-local-force                 convergence-correction
   0.224E+03 -.164E+04 0.421E+03   -.223E+03 0.164E+04 -.421E+03   -.900E+00 0.417E+01 -.479E+00   0.149E-02 0.494E-02 0.714E-02
   0.109E+04 -.980E+03 0.907E+03   -.109E+04 0.978E+03 -.905E+03   -.221E+01 0.227E+01 -.250E+01   0.489E-02 -.734E-03 0.204E-01
   0.289E+03 -.901E+03 0.129E+04   -.287E+03 0.901E+03 -.129E+04   -.121E+01 0.543E+00 -.104E+01   0.124E-04 -.419E-02 0.138E-02
   0.999E+03 -.108E+03 0.119E+04   -.998E+03 0.109E+03 -.119E+04   -.172E+01 -.656E+00 -.731E+00   -.719E-02 -.296E-02 0.141E-01
   -.565E+03 -.126E+04 0.779E+03   0.564E+03 0.126E+04 -.779E+03   0.407E+00 0.184E+01 -.150E+00   0.369E-02 0.475E-02 -.160E-01
   -.553E+03 -.614E+03 0.145E+04   0.551E+03 0.614E+03 -.144E+04   0.196E+01 0.370E+00 -.446E+01   -.870E-02 0.737E-02 -.129E-01
   0.157E+04 -.437E+03 0.167E+03   -.156E+04 0.437E+03 -.167E+03   -.232E+01 0.705E+00 -.266E+00   0.666E-02 0.593E-02 0.102E-01
   0.248E+03 0.872E+02 0.165E+04   -.247E+03 -.872E+02 -.165E+04   -.114E+01 0.388E-01 -.419E+01   -.150E-01 0.291E-02 -.215E-01
   0.117E+04 -.125E+04 -.210E+03   -.117E+04 0.125E+04 0.209E+03   -.260E+01 0.314E+01 0.923E+00   -.438E-02 0.496E-02 0.128E-01
   0.514E+03 -.139E+04 -.723E+03   -.514E+03 0.139E+04 0.722E+03   -.534E+00 0.174E+01 0.238E+00   0.206E-01 0.169E-01 0.160E-01
   -.452E+03 -.147E+04 -.179E+03   0.451E+03 0.147E+04 0.179E+03   0.377E+00 0.969E+00 0.250E-01   -.159E-01 -.433E-01 0.688E-02
   0.153E+04 0.431E+03 0.634E+03   -.153E+04 -.431E+03 -.633E+03   -.366E+01 -.714E+00 -.191E+01   -.220E-02 0.101E-02 -.189E-02
   0.344E+03 -.644E+03 0.220E+03   -.343E+03 0.643E+03 -.220E+03   -.112E+01 0.110E+01 -.433E+00   0.893E-02 -.242E-01 -.289E-02
   -.129E+04 -.432E+03 0.868E+03   0.129E+04 0.432E+03 -.867E+03   0.231E+01 0.158E+00 -.107E+01   0.111E-01 0.133E-01 -.393E-01
   0.851E+03 0.931E+03 0.115E+04   -.850E+03 -.930E+03 -.114E+04   -.131E+01 -.921E+00 -.259E+01   -.871E-02 -.350E-02 -.106E-02
   -.134E+04 -.113E+04 0.117E+03   0.134E+04 0.112E+04 -.118E+03   0.389E+01 0.403E+01 0.582E+00   0.623E-02 -.434E-02 0.150E-02
   -.842E+03 0.400E+03 0.133E+04   0.841E+03 -.400E+03 -.133E+04   0.670E+00 -.647E-01 -.195E+01   -.442E-03 0.992E-02 0.540E-02
   -.665E+03 -.271E+03 0.152E+03   0.663E+03 0.271E+03 -.151E+03   0.160E+01 0.332E+00 -.611E+00   -.239E-01 -.315E-01 -.253E-01
   -.597E+02 0.113E+04 0.135E+04   0.598E+02 -.113E+04 -.134E+04   -.115E+00 -.390E+01 -.330E+01   -.110E-01 -.176E-01 -.149E-01
   -.769E+02 0.203E+03 0.735E+03   0.766E+02 -.203E+03 -.733E+03   0.415E+00 0.344E-01 -.159E+01   -.259E-01 -.311E-02 0.591E-01
   0.158E+04 0.202E+03 -.548E+03   -.158E+04 -.202E+03 0.546E+03   -.383E+01 0.506E+00 0.135E+01   0.209E-02 0.215E-02 0.926E-02
   -.147E+04 0.533E+03 0.588E+03   0.147E+04 -.532E+03 -.588E+03   0.371E+01 -.167E+01 -.907E+00   -.243E-01 0.281E-01 0.138E-02
   -.355E+03 -.131E+04 -.102E+04   0.355E+03 0.130E+04 0.101E+04   0.360E+00 0.285E+01 0.309E+01   0.266E-01 0.204E-02 -.553E-02
   0.118E+04 -.553E+03 -.867E+03   -.118E+04 0.552E+03 0.865E+03   -.182E+01 0.708E+00 0.165E+01   0.812E-02 -.146E-01 0.474E-02
   -.122E+04 -.773E+03 -.782E+03   0.122E+04 0.772E+03 0.781E+03   0.177E+01 0.120E+01 0.763E+00   0.603E-02 -.186E-01 -.234E-05
   0.105E+04 0.131E+04 0.188E+03   -.105E+04 -.131E+04 -.187E+03   -.180E+01 -.233E+01 -.135E+01   -.690E-02 0.507E-02 -.206E-02
   -.164E+04 -.529E+02 -.244E+03   0.164E+04 0.527E+02 0.244E+03   0.286E+01 0.155E+00 0.251E+00   0.715E-02 -.816E-02 0.132E-01
   -.333E+02 -.305E+03 -.701E+03   0.328E+02 0.304E+03 0.700E+03   0.477E+00 0.636E+00 0.769E+00   0.202E-01 -.256E-02 -.344E-01
   -.344E+03 0.584E+03 -.225E+03   0.344E+03 -.583E+03 0.224E+03   -.124E+00 -.111E+01 0.647E+00   -.538E-02 0.209E-01 -.292E-01
   0.670E+03 0.318E+03 0.237E+02   -.669E+03 -.318E+03 -.231E+02   -.103E+01 -.549E+00 -.644E+00   0.329E-01 0.615E-02 0.773E-02
   -.843E+03 0.117E+04 0.664E+03   0.842E+03 -.117E+04 -.664E+03   0.111E+01 -.835E+00 -.370E+00   -.669E-02 -.883E-02 0.368E-02
   0.562E+03 -.632E+03 -.149E+04   -.560E+03 0.631E+03 0.148E+04   -.211E+01 0.143E+01 0.390E+01   0.356E-02 -.706E-02 0.466E-03
   0.173E+03 0.151E+04 0.507E+03   -.173E+03 -.150E+04 -.506E+03   -.554E-01 -.158E+01 -.708E+00   -.730E-02 0.601E-02 0.483E-02
   0.779E+03 0.212E+03 -.113E+04   -.779E+03 -.212E+03 0.113E+04   -.379E+00 -.451E+00 0.105E+01   -.382E-01 0.342E-01 -.441E-02
   -.707E+03 -.376E+03 -.149E+04   0.706E+03 0.375E+03 0.149E+04   0.162E+01 0.115E+01 0.323E+01   -.126E-02 -.515E-02 -.459E-02
   0.110E+04 0.982E+03 -.801E+03   -.109E+04 -.979E+03 0.798E+03   -.334E+01 -.263E+01 0.266E+01   -.123E-01 0.980E-02 0.290E-02
   -.138E+04 0.916E+03 -.331E+03   0.138E+04 -.915E+03 0.330E+03   0.247E+01 -.191E+01 0.110E+01   -.130E-02 -.910E-02 -.202E-03
   0.264E+03 0.141E+04 -.474E+03   -.264E+03 -.141E+04 0.473E+03   -.377E+00 -.331E+00 0.955E+00   0.285E-03 0.369E-01 -.111E-01
   -.115E+04 0.274E+03 -.101E+04   0.115E+04 -.274E+03 0.101E+04   0.144E+01 -.192E+00 0.965E+00   0.123E-01 0.994E-02 0.614E-02
   -.699E+03 0.109E+04 -.109E+04   0.697E+03 -.109E+04 0.109E+04   0.175E+01 -.218E+01 0.261E+01   0.153E-01 -.166E-01 0.358E-02
   -.133E+03 0.269E+03 -.158E+04   0.133E+03 -.269E+03 0.158E+04   -.900E-01 -.630E+00 0.257E+01   0.181E-01 0.382E-02 -.657E-02
   -.621E+03 0.164E+04 -.133E+03   0.619E+03 -.164E+04 0.133E+03   0.201E+01 -.435E+01 -.127E+00   -.130E-01 -.756E-02 -.849E-02
   0.269E+03 0.920E+03 -.136E+04   -.269E+03 -.917E+03 0.135E+04   -.306E+00 -.313E+01 0.438E+01   0.660E-04 -.582E-02 0.130E-01
   0.271E+01 0.521E-01 -.230E+01   -.483E-11 -.796E-12 -.205E-11   -.290E+01 -.592E-01 0.234E+01   -.236E-01 -.249E-02 -.165E-01

 POSITION                                       TOTAL-FORCE (eV/Angst)
     10.46321     15.68245     10.01227        -0.003008      0.001611     -0.007629
      8.10362     14.38715      8.76515        -0.004207     -0.001265     -0.013483
     10.63668     13.74970      7.78154         0.002624      0.003210     -0.002398
      8.83584     11.68517      8.47446         0.003896      0.001400     -0.005459
     12.93110     14.45169      9.09129        -0.003659     -0.003318      0.004676
     13.12534     13.12738      6.67370         0.008203     -0.001944      0.010374
      7.28569     12.37601     10.68554        -0.001760     -0.001492     -0.009387
     11.04213     11.17839      6.65638         0.006092      0.003272     -0.005112
      8.07168     14.92918     11.45039        -0.004784     -0.003300     -0.018426
     10.17307     14.91807     13.18780        -0.003625     -0.006228     -0.010087
     12.54821     14.89579     11.82305         0.002619      0.028004      0.003164
      6.69107      9.85247      9.73628         0.001844     -0.004382     -0.001389
     10.34912     13.03336     10.68719         0.000826     -0.000797      0.005117
     14.97768     12.53664      8.73341        -0.004874     -0.018664      0.020247
      9.01433      8.95315      8.53695         0.004686      0.002572      0.002392
     15.16709     14.28709     10.84278         0.001889      0.011090      0.002452
     13.71527     10.41117      7.45300         0.011878     -0.002327     -0.003499
     13.13324     12.20587     10.96824        -0.011303      0.006588      0.023875
     11.58056      8.53336      7.49572         0.006022     -0.001176      0.002654
     11.41863     10.65263      9.32541         0.010247      0.010576      0.016151
      6.99259     10.12424     12.56323         0.000475     -0.001956      0.000650
     15.84152      9.96499      9.35269         0.015918     -0.019894     -0.000065
     12.49701     15.14067     14.65549        -0.025995     -0.000755      0.001073
      8.62909     12.59796     13.11390        -0.008335     -0.010827     -0.000615
     14.41320     13.48192     13.40392        -0.006896      0.007237      0.003224
      8.08509      7.83294     11.17753         0.005975     -0.004559     -0.000123
     15.75974     11.62545     11.62657         0.000550      0.003592     -0.007518
     11.43382     12.08845     13.19690        -0.007527     -0.005014      0.004120
     12.14222      9.69253     11.89233        -0.011401      0.006476     -0.004493
      9.41088     10.37532     11.24070        -0.000319      0.002569     -0.015964
     13.48103      8.54129      9.55310         0.006287      0.005308      0.004208
     10.38619     13.14502     15.45419        -0.006479      0.009458      0.006714
     10.81885      7.77171     10.20694         0.007119     -0.001228      0.001850
      9.36013     10.14739     14.14133         0.004495     -0.005180     -0.017536
     13.21887     12.70801     15.81596        -0.000681     -0.000162      0.000442
      7.77309      7.81103     14.02774         0.002815     -0.005295     -0.003415
     14.89550      8.96384     11.94218         0.003546      0.005998     -0.001515
     10.31031      7.65296     12.94610         0.003650     -0.028082     -0.004081
     13.95289     10.80393     13.83088        -0.006326      0.008754     -0.003206
     12.69638      8.30170     14.28497        -0.008325      0.004362      0.003292
     11.62868     10.48476     15.63693        -0.000700      0.007121      0.012712
     12.89748      6.90771     11.86229         0.008729      0.004484      0.003511
     10.14037      8.01799     15.72204        -0.000180     -0.005836      0.002502
    total drift:                               -0.206073     -0.009536      0.028953

  FREE ENERGIE OF THE ION-ELECTRON SYSTEM (eV)
  free  energy   TOTEN  =       -92.78578029 eV

  energy  without entropy=      -92.78578029  energy(sigma->0) =      -92.78578029

 d Force =-0.5216461E-04[-0.274E-03, 0.169E-03]  d Energy =-0.8167075E-04 0.295E-04
 d Force =-0.3424162E+00[-0.343E+00,-0.342E+00]  d Ewald  =-0.3424156E+00-0.587E-06

 reached required accuracy - stopping structural energy minimisation