 vasp.5.3.5 31Mar14 (build Feb 01 2018 12:10:03) gamma-only

 executed on             LinuxIFC date 2019.03.29  22:55:14

 INCAR:
 POTCAR:    PAW_PBE Ag 02Apr2005
 POTCAR:    PAW_PBE Ag 02Apr2005
   VRHFIN =Ag : s1 d10

   TITEL  = PAW_PBE Ag 02Apr2005
   POMASS =  107.868; ZVAL   =   11.000    mass and valenz
   ENMAX  =  249.844; ENMIN  =  187.383 eV

  PAW_PBE Ag 02Apr2005                  :

 POSCAR: Si55, -264.52852462 <s> Ag </s>
  positions in direct lattice
  velocities in cartesian coordinates
 exchange correlation table for  LEXCH =        8
   RHO(1)=    0.500       N(1)  =     2000
   RHO(2)=  100.500       N(2)  =     4000

 ion  position               nearest neighbor table
   1  0.657  0.495  0.383-  16 2.78   9 2.82  14 2.88   5 2.89   2 2.94   4 2.94
   2  0.767  0.546  0.357-   9 2.74   5 2.76   1 2.94  10 2.97
   3  0.470  0.526  0.478-  20 2.77  21 2.80  14 2.80   4 2.84   6 2.96  13 2.99  11 3.14
   4  0.549  0.450  0.427-  16 2.72  14 2.82   3 2.84   1 2.94  11 2.97
   5  0.746  0.510  0.466-   2 2.76  28 2.80  10 2.80  16 2.81   1 2.89  23 2.90   9 2.92  24 2.94

   6  0.500  0.647  0.492-  13 2.81  12 2.81   7 2.82  21 2.86  14 2.89   3 2.96  29 2.99  39 3.06
                            26 3.24
   7  0.609  0.682  0.457-   9 2.73  15 2.78   6 2.82  26 2.83  14 2.87  12 2.88   8 2.95  24 3.43
                            25 3.50
   8  0.727  0.718  0.436-  25 2.73   9 2.83  15 2.84  10 2.91   7 2.95  17 3.00
   9  0.687  0.607  0.415-   7 2.73   2 2.74  10 2.77   1 2.82   8 2.83  14 2.84   5 2.92  24 3.01
                            25 3.51
  10  0.796  0.617  0.457-   9 2.77   5 2.80  25 2.84  23 2.91   8 2.91   2 2.97
  11  0.537  0.437  0.551-  16 2.84  20 2.87  21 2.92  37 2.95   4 2.97  27 2.99  22 2.99  34 3.06
                             3 3.14
  12  0.538  0.757  0.521-  19 2.78  15 2.81   6 2.81  39 2.82  18 2.87   7 2.88  26 2.89  29 3.33

  13  0.409  0.605  0.556-   6 2.81  20 2.81  29 2.84  46 2.90  35 2.94   3 2.99  39 3.03  21 3.26

  14  0.578  0.564  0.446-   3 2.80   4 2.82   9 2.84   7 2.87   1 2.88   6 2.89  24 2.93  21 2.99
                            16 3.06
  15  0.656  0.772  0.516-  17 2.74  18 2.77   7 2.78  12 2.81   8 2.84  33 2.90  25 3.01  26 3.01

  16  0.641  0.462  0.495-   4 2.72  27 2.74   1 2.78   5 2.81  24 2.83  11 2.84  28 2.85  37 3.00
                            14 3.06
  17  0.770  0.780  0.539-  25 2.73  15 2.74  33 2.90   8 3.00
  18  0.598  0.815  0.609-  32 2.76  15 2.77  19 2.83  33 2.84  12 2.87  41 2.91  42 2.97  26 3.50

  19  0.481  0.833  0.591-  45 2.75  12 2.78  39 2.83  18 2.83  32 2.86
  20  0.432  0.490  0.583-  22 2.76   3 2.77  13 2.81  35 2.86  11 2.87  21 3.05
  21  0.540  0.560  0.567-   3 2.80   6 2.86  38 2.86  37 2.88  29 2.88  11 2.92  22 2.96  14 2.99
                            24 3.02  26 3.04  20 3.05  13 3.26  35 3.54
  22  0.514  0.487  0.666-  34 2.72  35 2.73  20 2.76  48 2.82  40 2.86  37 2.89  21 2.96  38 2.99
                            11 2.99
  23  0.782  0.567  0.569-  31 2.79  25 2.82  28 2.85  44 2.90   5 2.90  24 2.90  10 2.91  30 2.98

  24  0.663  0.573  0.536-  25 2.81  16 2.83  37 2.84  26 2.84  23 2.90  30 2.90  14 2.93   5 2.94
                             9 3.01  21 3.02  28 3.33   7 3.43
  25  0.730  0.671  0.542-  17 2.73   8 2.73  30 2.77  24 2.81  23 2.82  10 2.84  33 2.86  15 3.01
                            26 3.03   7 3.50   9 3.51
  26  0.606  0.671  0.576-  29 2.79  42 2.83   7 2.83  24 2.84  30 2.89  12 2.89  15 3.01  38 3.02
                            25 3.03  33 3.03  21 3.04   6 3.24  18 3.50
  27  0.646  0.376  0.573-  34 2.72  16 2.74  28 2.81  36 2.92  37 2.97  11 2.99
  28  0.734  0.456  0.571-  31 2.73   5 2.80  27 2.81  16 2.85  23 2.85  37 2.89  44 2.92  36 2.95
                            24 3.33
  29  0.496  0.662  0.618-  39 2.75  26 2.79  46 2.83  13 2.84  42 2.85  21 2.88  53 2.90  35 2.91
                            38 2.92  45 2.93   6 2.99  12 3.33
  30  0.696  0.623  0.644-  43 2.76  25 2.77  47 2.85  44 2.85  26 2.89  38 2.89  24 2.90  33 2.94
                            23 2.98  37 3.52
  31  0.838  0.475  0.618-  28 2.73  44 2.73  23 2.79
  32  0.532  0.849  0.700-  18 2.76  45 2.77  54 2.79  41 2.83  19 2.86  42 3.36
  33  0.694  0.746  0.631-  47 2.83  18 2.84  25 2.86  15 2.90  17 2.90  41 2.91  30 2.94  26 3.03
                            42 3.05
  34  0.577  0.390  0.665-  22 2.72  27 2.72  48 2.85  36 2.86  37 2.91  11 3.06
  35  0.435  0.571  0.674-  22 2.73  46 2.78  53 2.79  20 2.86  29 2.91  40 2.94  13 2.94  38 3.49
                            21 3.54
  36  0.695  0.412  0.681-  44 2.81  34 2.86  51 2.87  37 2.89  48 2.90  27 2.92  28 2.95
  37  0.627  0.492  0.618-  24 2.84  48 2.87  21 2.88  22 2.89  36 2.89  28 2.89  34 2.91  11 2.95
                            27 2.97  38 2.97  16 3.00  44 3.23  30 3.52
  38  0.581  0.594  0.676-  40 2.85  21 2.86  42 2.87  30 2.89  29 2.92  37 2.97  43 2.97  22 2.99
                            26 3.02  52 3.04  48 3.13  53 3.32  35 3.49
  39  0.426  0.732  0.556-  29 2.75  12 2.82  19 2.83  46 2.88  13 3.03   6 3.06  45 3.08
  40  0.514  0.552  0.768-  53 2.81  52 2.84  38 2.85  22 2.86  49 2.90  48 2.90  35 2.94
  41  0.642  0.808  0.724-  42 2.76  32 2.83  50 2.85  47 2.88  18 2.91  33 2.91  54 3.17
  42  0.581  0.716  0.684-  41 2.76  54 2.78  26 2.83  29 2.85  38 2.87  47 2.90  18 2.97  52 2.99
                            33 3.05  53 3.10  45 3.15  32 3.36
  43  0.681  0.579  0.751-  49 2.75  30 2.76  44 2.76  51 2.77  47 2.78  55 2.78  48 2.89  38 2.97
                            52 3.05
  44  0.748  0.519  0.677-  31 2.73  43 2.76  36 2.81  30 2.85  51 2.86  23 2.90  28 2.92  37 3.23

[...]

  46  0.381  0.674  0.654-  45 2.77  35 2.78  29 2.83  39 2.88  13 2.90  53 2.99
  47  0.689  0.696  0.740-  43 2.78  50 2.80  33 2.83  30 2.85  55 2.88  41 2.88  42 2.90  52 3.04

  48  0.610  0.480  0.738-  51 2.76  49 2.82  22 2.82  34 2.85  37 2.87  43 2.89  40 2.90  36 2.90
                            38 3.13
  49  0.614  0.543  0.840-  43 2.75  48 2.82  52 2.86  40 2.90  55 2.91  51 3.22
  50  0.634  0.750  0.830-  54 2.79  47 2.80  55 2.80  52 2.82  41 2.85
  51  0.717  0.472  0.785-  48 2.76  43 2.77  44 2.86  36 2.87  49 3.22
  52  0.581  0.650  0.792-  55 2.79  50 2.82  53 2.82  40 2.84  49 2.86  54 2.94  42 2.99  38 3.04
                            47 3.04  43 3.05
  53  0.474  0.661  0.739-  35 2.79  45 2.79  40 2.81  52 2.82  54 2.86  29 2.90  46 2.99  42 3.10
                            38 3.32
  54  0.528  0.762  0.779-  42 2.78  50 2.79  32 2.79  53 2.86  45 2.92  52 2.94  41 3.17
  55  0.684  0.644  0.850-  43 2.78  52 2.79  50 2.80  47 2.88  49 2.91

  LATTYP: Found a simple cubic cell.
 ALAT       =    23.5727067243

  Lattice vectors:

 A1 = (  23.5727067243,   0.0000000000,   0.0000000000)
 A2 = (   0.0000000000,  23.5727067243,   0.0000000000)
 A3 = (   0.0000000000,   0.0000000000,  23.5727067243)

Analysis of symmetry for initial positions (statically):
 Subroutine PRICEL returns:
 Original cell was already a primitive cell.

 Routine SETGRP: Setting up the symmetry group for a
 simple cubic supercell.

 Subroutine GETGRP returns: Found  1 space group operations
 (whereof  1 operations were pure point group operations)
 out of a pool of 48 trial point group operations.

The static configuration has the point symmetry C_1 .

Analysis of symmetry for dynamics (positions and initial velocities):
 Subroutine PRICEL returns:
 Original cell was already a primitive cell.

 Routine SETGRP: Setting up the symmetry group for a
 simple cubic supercell.

 Subroutine GETGRP returns: Found  1 space group operations
 (whereof  1 operations were pure point group operations)
 out of a pool of 48 trial point group operations.

The dynamic configuration has the point symmetry C_1 .

Analysis of magnetic symmetry:
 Subroutine PRICEL returns:
 Original cell was already a primitive cell.

 Subroutine MAGSYM returns: Found  1 space group operations
 (whereof  1 operations were pure point group operations)
 out of a pool of  1 trial space group operations
 (whereof  1 operations were pure point group operations)
 and found also     1 'primitive' translations

The magnetic configuration has the point symmetry C_1 .

 KPOINTS: Gamma-point only
  k-points in reciprocal lattice
Space group operators:
 irot       det(A)        alpha          n_x          n_y          n_z        tau_x        tau_y        tau_z
    1     1.000000     0.000000     1.000000     0.000000     0.000000     0.000000     0.000000     0.000000

 I would recommend the setting:
   dimension x,y,z NGX =    91 NGY =   91 NGZ =   91
 SYSTEM =  unknown system
 POSCAR =  Si55, -264.52852462 <s> Ag </s>

 Startparameter for this run:
   NWRITE =      2    write-flag & timer
   PREC   = normal    normal or accurate (medium, high low for compatibility)
   ISTART =      0    job   : 0-new  1-cont  2-samecut
   ICHARG =      2    charge: 1-file 2-atom 10-const
   ISPIN  =      2    spin polarized calculation?
   LNONCOLLINEAR =      F non collinear calculations
   LSORBIT =      F    spin-orbit coupling
   INIWAV =      1    electr: 0-lowe 1-rand  2-diag
   LASPH  =      F    aspherical Exc in radial PAW
   METAGGA=      F    non-selfconsistent MetaGGA calc.

 Electronic Relaxation 1
   ENCUT  =  249.8 eV  18.36 Ry    4.29 a.u.  30.38 30.38 30.38*2*pi/ulx,y,z
   ENINI  =  249.8     initial cutoff
   ENAUG  =  412.5 eV  augmentation charge cutoff
   NELM   =     60;   NELMIN=  2; NELMDL=  0     # of ELM steps
   EDIFF  = 0.1E-03   stopping-criterion for ELM
   LREAL  =      F    real-space projection
   NLSPLINE    = F    spline interpolate recip. space projectors
   LCOMPAT=      F    compatible to vasp.4.4
   GGA_COMPAT  = T    GGA compatible to vasp.4.4-vasp.4.6
   LMAXPAW     = -100 max onsite density
   LMAXMIX     =    2 max onsite mixed and CHGCAR
   VOSKOWN=      0    Vosko Wilk Nusair interpolation
   ROPT   =    0.00000
 Ionic relaxation
   EDIFFG = 0.1E-02   stopping-criterion for IOM
   NSW    =   1000    number of steps for IOM
   NBLOCK =      1;   KBLOCK =   1000    inner block; outer block
   IBRION =      2    ionic relax: 0-MD 1-quasi-New 2-CG
   NFREE  =      1    steps in history (QN), initial steepest desc. (CG)
   ISIF   =      2    stress and relaxation
   IWAVPR =     11    prediction:  0-non 1-charg 2-wave 3-comb
   ISYM   =      2    0-nonsym 1-usesym 2-fastsym
   LCORR  =      T    Harris-Foulkes like correction to forces

   POTIM  = 0.1000    time-step for ionic-motion
   TEIN   =    0.0    initial temperature
   TEBEG  =    0.0;   TEEND  =   0.0 temperature during run
   SMASS  =  -3.00    Nose mass-parameter (am)
   estimated Nose-frequenzy (Omega)   =  0.10E-29 period in steps =****** mass=  -0.127E-25a.u.
   SCALEE = 1.0000    scale energy and forces
   NPACO  =    256;   APACO  = 16.0  distance and # of slots for P.C.
   PSTRESS=    0.0 pullay stress

  Mass of Ions in am
   POMASS = 107.87
  Ionic Valenz
   ZVAL   =  11.00
  Atomic Wigner-Seitz radii
  virtual crystal weights
   VCA    =   1.00
   NELECT =     605.0000    total number of electrons
   NUPDOWN=      -1.0000    fix difference up-down

[...]
      8      -8.8757      1.00000
      9      -8.8689      1.00000
     10      -8.8670      1.00000
     11      -8.8168      1.00000
     12      -8.7728      1.00000
     13      -8.7540      1.00000
     14      -8.7479      1.00000
     15      -8.7358      1.00000
     16      -8.7308      1.00000
     17      -8.7150      1.00000
     18      -8.6980      1.00000
     19      -8.6778      1.00000
     20      -8.6624      1.00000
     21      -8.6405      1.00000
     22      -8.6275      1.00000
     23      -8.6180      1.00000
     24      -8.6094      1.00000
     25      -8.5905      1.00000
     26      -8.5847      1.00000
     27      -8.5564      1.00000
     28      -8.5510      1.00000
     29      -8.5233      1.00000
     30      -8.5139      1.00000
     31      -8.4943      1.00000
     32      -8.4805      1.00000
     33      -8.4579      1.00000
     34      -8.4529      1.00000
     35      -8.4418      1.00000
     36      -8.4239      1.00000
     37      -8.4110      1.00000
     38      -8.4038      1.00000
     39      -8.3923      1.00000
     40      -8.3676      1.00000
     41      -8.3564      1.00000
     42      -8.3547      1.00000
     43      -8.3372      1.00000
     44      -8.3348      1.00000
     45      -8.3125      1.00000
     46      -8.2954      1.00000
     47      -8.2839      1.00000
     48      -8.2779      1.00000
     49      -8.2640      1.00000
     50      -8.2584      1.00000
     51      -8.2341      1.00000
     52      -8.2061      1.00000
     53      -8.1999      1.00000
     54      -8.1817      1.00000
     55      -8.1703      1.00000
     56      -8.1668      1.00000
     57      -8.1550      1.00000
     58      -8.1377      1.00000
     59      -8.1228      1.00000
     60      -8.1057      1.00000
[...]
    378       1.4391      0.00000
    379       1.4465      0.00000
    380       1.4852      0.00000
    381       1.4957      0.00000
    382       1.5052      0.00000
    383       1.5126      0.00000
    384       1.5274      0.00000
    385       1.5636      0.00000
    386       1.5904      0.00000
    387       1.6246      0.00000
    388       1.6459      0.00000
    389       1.6874      0.00000
    390       1.7084      0.00000
    391       1.7323      0.00000
    392       1.7527      0.00000

[...]

 soft charge-density along one line, spin component           2
         0         1         2         3         4         5         6         7         8         9
 total charge-density along one line

------------------------ aborting loop because EDIFF is reached ----------------------------------------

  FORCE on cell =-STRESS in cart. coord.  units (eV):
  Direction    XX          YY          ZZ          XY          YZ          ZX
  Alpha Z   196.43153   196.43153   196.43153
  Ewald   44269.91277 63195.21542 60589.96140 -8148.43907  6919.35112 -6186.10786
  Hartree 63072.22447 81167.76548 78700.20239 -7721.09637  6445.41172 -5880.01258
  E(xc)   -3190.76307 -3189.84463 -3189.98761    -0.41472     0.86810    -0.27888
  Local  ************************************ 15870.20871-13361.73669 12064.93948
  n-local  -564.48633  -562.79548  -562.60854    -1.84467     0.94537    -0.60905
  augment  5055.68826  5053.17566  5054.22173     0.50554    -1.52681     0.59457
  Kinetic  7530.31747  7524.48755  7526.86973     0.68268    -3.23644     1.30954
  Fock        0.00000     0.00000     0.00000     0.00000     0.00000     0.00000
  Total     -20.62510   -19.86830   -19.78597    -0.39791     0.07637    -0.16478
  in kB      -2.52277    -2.43021    -2.42014    -0.04867     0.00934    -0.02016

 VOLUME and BASIS-vectors are now :
  energy-cutoff  :      249.84
  volume of cell :    13098.70
      direct lattice vectors                 reciprocal lattice vectors
    23.572706724  0.000000000  0.000000000     0.042421942  0.000000000  0.000000000
     0.000000000 23.572706724  0.000000000     0.000000000  0.042421942  0.000000000
     0.000000000  0.000000000 23.572706724     0.000000000  0.000000000  0.042421942

  length of vectors
    23.572706724 23.572706724 23.572706724     0.042421942  0.042421942  0.042421942

 FORCES acting on ions
    electron-ion (+dipol)            ewald-force                    non-local-force                 convergence-correction
   -.120E+03 0.789E+03 0.159E+04   0.120E+03 -.787E+03 -.158E+04   0.117E+00 -.180E+01 -.394E+01   0.104E-01 0.105E-01 -.273E-02
   -.914E+03 0.283E+03 0.138E+04   0.910E+03 -.282E+03 -.138E+04   0.347E+01 -.701E+00 -.505E+01   -.749E-03 -.272E-02 -.184E-02
   0.131E+04 0.578E+03 0.121E+04   -.131E+04 -.577E+03 -.121E+04   -.271E+01 -.101E+01 -.222E+01   -.255E-02 0.229E-01 -.555E-02
   0.647E+03 0.114E+04 0.130E+04   -.645E+03 -.114E+04 -.130E+04   -.267E+01 -.337E+01 -.296E+01   -.277E-02 -.577E-03 -.155E-01
   -.117E+04 0.858E+03 0.879E+03   0.116E+04 -.857E+03 -.878E+03   0.202E+01 -.930E+00 -.155E+01   -.223E-02 -.458E-02 -.398E-02
   0.103E+04 -.406E+03 0.135E+04   -.103E+04 0.406E+03 -.135E+04   -.162E+01 0.558E+00 -.149E+01   -.708E-02 0.899E-02 0.321E-02
   0.209E+03 -.753E+03 0.152E+04   -.208E+03 0.753E+03 -.152E+04   -.528E+00 0.571E+00 -.173E+01   -.104E-01 -.620E-02 -.979E-02
   -.804E+03 -.989E+03 0.132E+04   0.802E+03 0.987E+03 -.132E+04   0.184E+01 0.285E+01 -.376E+01   -.118E-01 0.577E-02 -.924E-03
   -.339E+03 -.255E+03 0.153E+04   0.339E+03 0.255E+03 -.153E+04   0.717E+00 -.326E+00 -.799E+00   0.427E-02 -.799E-02 -.129E-01
   -.158E+04 -.263E+03 0.807E+03   0.157E+04 0.262E+03 -.806E+03   0.422E+01 0.113E+01 -.962E+00   -.366E-02 -.119E-02 -.351E-02
   0.814E+03 0.150E+04 0.453E+03   -.813E+03 -.150E+04 -.452E+03   -.136E+01 -.187E+01 -.564E+00   0.356E-02 0.991E-02 -.132E-01
   0.576E+03 -.123E+04 0.108E+04   -.575E+03 0.123E+04 -.108E+04   -.121E+01 0.114E+01 -.885E+00   0.141E-01 0.629E-02 0.833E-02
   0.174E+04 0.116E+03 0.624E+03   -.174E+04 -.116E+03 -.623E+03   -.238E+01 -.139E+00 -.127E+01   0.195E-01 -.476E-02 0.240E-01
   0.494E+03 0.135E+03 0.149E+04   -.493E+03 -.134E+03 -.149E+04   -.562E+00 -.748E+00 -.111E+01   -.262E-02 -.177E-02 -.546E-02
   -.355E+03 -.149E+04 0.871E+03   0.354E+03 0.149E+04 -.870E+03   0.117E+01 0.175E+01 -.142E+01   0.671E-02 -.131E-01 0.170E-01
   -.202E+03 0.126E+04 0.884E+03   0.203E+03 -.126E+04 -.884E+03   -.115E+01 0.786E-01 -.522E+00   -.212E-02 -.868E-02 -.226E-02
   -.131E+04 -.122E+04 0.267E+03   0.131E+04 0.122E+04 -.267E+03   0.523E+01 0.396E+01 0.708E-01   0.683E-02 -.279E-02 0.106E-01
   -.169E+03 -.166E+04 0.220E+03   0.168E+03 0.166E+04 -.220E+03   0.380E+00 0.128E+01 0.845E-01   -.256E-01 0.861E-02 0.261E-02
   0.864E+03 -.153E+04 0.411E+03   -.862E+03 0.152E+04 -.410E+03   -.153E+01 0.449E+01 -.116E+01   -.171E-01 0.176E-01 -.243E-01
   0.157E+04 0.108E+04 0.147E+03   -.156E+04 -.108E+04 -.147E+03   -.336E+01 -.286E+01 -.114E+00   0.417E-02 0.596E-02 0.172E-01
   0.635E+03 0.397E+03 0.390E+03   -.634E+03 -.396E+03 -.389E+03   -.164E+01 -.313E+00 -.400E+00   0.908E-02 0.797E-02 -.103E-01
   0.103E+04 0.116E+04 -.632E+03   -.103E+04 -.116E+04 0.631E+03   -.745E+00 -.303E+00 0.438E+00   -.285E-02 -.188E-01 -.753E-02
   -.167E+04 0.303E+02 0.460E+02   0.167E+04 -.311E+02 -.470E+02   0.173E+01 0.783E+00 0.935E+00   -.976E-02 -.137E-01 -.180E-01
   -.439E+03 0.193E+03 0.518E+03   0.439E+03 -.193E+03 -.518E+03   -.745E-01 -.986E-01 -.551E+00   0.887E-02 -.648E-02 -.639E-02
   -.124E+04 -.595E+03 0.298E+03   0.124E+04 0.594E+03 -.296E+03   -.124E+00 0.106E+01 -.146E+01   0.421E-02 0.238E-02 -.714E-02
   -.365E+02 -.541E+03 0.339E+03   0.369E+02 0.540E+03 -.338E+03   -.385E+00 0.719E+00 -.953E+00   0.204E-02 -.170E-01 0.307E-02
   -.241E+03 0.182E+04 0.326E+03   0.240E+03 -.182E+04 -.324E+03   0.540E+00 -.458E+01 -.137E+01   -.500E-02 -.739E-02 -.341E-03
   -.110E+04 0.124E+04 0.274E+03   0.110E+04 -.124E+04 -.275E+03   0.622E+00 -.105E+01 0.434E+00   0.375E-02 -.779E-02 0.684E-03
   0.908E+03 -.364E+03 0.272E+02   -.907E+03 0.363E+03 -.272E+02   -.160E+01 0.727E+00 0.322E-01   -.175E-02 -.111E-01 0.134E-01
   -.111E+04 -.223E+03 -.417E+03   0.111E+04 0.223E+03 0.416E+03   -.523E+00 0.135E+00 0.132E+00   0.253E-01 0.238E-01 0.106E-01
   -.159E+04 0.701E+03 -.183E+03   0.159E+04 -.698E+03 0.182E+03   0.677E+01 -.276E+01 0.644E+00   0.332E-02 -.816E-03 0.770E-02
   0.433E+03 -.164E+04 -.571E+03   -.432E+03 0.164E+04 0.570E+03   -.675E+00 0.417E+01 0.146E+01   -.323E-02 0.191E-01 -.124E-01
   -.114E+04 -.116E+04 -.273E+03   0.114E+04 0.115E+04 0.273E+03   0.922E+00 0.566E+00 -.171E-01   -.122E-01 0.129E-01 -.319E-02
   0.508E+03 0.173E+04 -.576E+03   -.506E+03 -.172E+04 0.575E+03   -.223E+01 -.441E+01 0.105E+01   0.140E-01 -.265E-01 0.245E-01
   0.159E+04 0.557E+03 -.669E+03   -.159E+04 -.556E+03 0.669E+03   -.231E+01 -.777E+00 -.692E-01   -.208E-01 -.299E-02 0.255E-01
   -.747E+03 0.154E+04 -.654E+03   0.745E+03 -.153E+04 0.653E+03   0.184E+01 -.273E+01 0.822E+00   -.702E-02 -.126E-01 -.103E-02
   -.163E+03 0.852E+03 -.142E+03   0.162E+03 -.851E+03 0.142E+03   0.774E+00 -.124E+01 0.437E+00   -.440E-02 -.644E-03 0.304E-02
   0.183E+03 0.174E+03 -.576E+03   -.182E+03 -.173E+03 0.575E+03   -.401E+00 -.328E+00 0.932E+00   0.579E-02 -.156E-01 -.604E-02
   0.147E+04 -.861E+03 0.750E+03   -.147E+04 0.861E+03 -.748E+03   -.341E+01 0.367E+00 -.187E+01   -.167E-01 -.470E-02 0.709E-02
   0.101E+04 0.661E+03 -.141E+04   -.101E+04 -.659E+03 0.141E+04   -.183E+01 -.226E+01 0.231E+01   0.160E-01 -.281E-02 -.518E-02
   -.668E+03 -.152E+04 -.750E+03   0.667E+03 0.151E+04 0.748E+03   0.178E+01 0.353E+01 0.166E+01   -.203E-01 -.563E-02 -.270E-02
   0.973E+02 -.781E+03 -.509E+03   -.971E+02 0.780E+03 0.508E+03   -.156E+00 0.172E+01 0.521E+00   0.274E-02 -.177E-01 -.200E-02
   -.920E+03 0.163E+03 -.108E+04   0.921E+03 -.162E+03 0.108E+04   -.120E+01 -.733E+00 0.116E+01   0.174E-01 0.148E-01 0.148E-01
   -.137E+04 0.428E+03 -.703E+03   0.137E+04 -.428E+03 0.703E+03   0.472E+00 0.181E+00 0.504E+00   -.128E-01 -.467E-02 -.110E-01
   0.128E+04 -.106E+04 -.539E+03   -.128E+04 0.106E+04 0.539E+03   -.113E+01 0.120E+01 -.104E+00   0.212E-01 0.114E-01 -.134E-01
   0.183E+04 -.320E+03 -.362E+03   -.183E+04 0.319E+03 0.360E+03   -.526E+01 0.388E+00 0.105E+01   0.105E-01 0.154E-01 -.104E-01
   -.122E+04 -.683E+03 -.900E+03   0.122E+04 0.682E+03 0.899E+03   0.171E+01 0.691E+00 0.894E+00   -.353E-02 0.290E-01 0.170E-01
   0.144E+03 0.113E+04 -.116E+04   -.144E+03 -.113E+04 0.116E+04   0.556E+00 -.277E+00 0.124E+01   -.525E-02 -.291E-01 0.663E-02
   0.701E+02 0.614E+03 -.171E+04   -.698E+02 -.612E+03 0.171E+04   -.285E+00 -.211E+01 0.455E+01   0.704E-02 0.732E-02 -.748E-02
   -.350E+03 -.955E+03 -.148E+04   0.349E+03 0.952E+03 0.148E+04   0.879E+00 0.293E+01 0.365E+01   -.915E-03 0.938E-02 0.179E-01
   -.925E+03 0.911E+03 -.130E+04   0.922E+03 -.909E+03 0.130E+04   0.308E+01 -.218E+01 0.457E+01   -.422E-02 -.549E-02 -.228E-02
   0.322E+03 -.192E+03 -.150E+04   -.322E+03 0.192E+03 0.150E+04   0.963E+00 0.120E+00 0.393E+00   0.223E-02 -.325E-02 -.168E-02
   0.124E+04 -.214E+03 -.123E+04   -.124E+04 0.214E+03 0.123E+04   -.117E+01 0.169E+00 0.110E+01   0.145E-02 0.699E-02 -.131E-02
   0.697E+03 -.986E+03 -.137E+04   -.695E+03 0.984E+03 0.137E+04   -.149E+01 0.146E+01 0.285E+01   -.752E-02 0.545E-02 -.582E-02
   -.825E+03 -.172E+03 -.157E+04   0.821E+03 0.173E+03 0.156E+04   0.346E+01 -.696E+00 0.448E+01   -.530E-02 0.963E-02 0.103E-01
   0.535E+00 0.186E+01 -.129E-01   0.159E-11 0.168E-11 0.127E-10   -.451E+00 -.188E+01 0.935E-01   -.787E-02 0.323E-02 0.751E-02

 POSITION                                       TOTAL-FORCE (eV/Angst)
     15.48069     11.67910      9.03353         0.008607      0.008084     -0.002401
     18.08825     12.88073      8.42339         0.000767     -0.003025     -0.003112
     11.07886     12.39905     11.25592        -0.002954      0.018715     -0.001819
     12.93804     10.61376     10.05653        -0.001603      0.000873     -0.011524
     17.57543     12.02462     10.99400        -0.001832     -0.004814     -0.002335
     11.78763     15.25314     11.59330        -0.005453      0.008920      0.003350
     14.35727     16.07192     10.76266        -0.006918     -0.005376     -0.005754
     17.14197     16.91865     10.28617        -0.011237      0.004325     -0.000577
     16.19106     14.29952      9.79036         0.001665     -0.003039     -0.008413
     18.76463     14.55141     10.78268        -0.003380     -0.000290     -0.002997
     12.65460     10.30813     12.99569         0.002606      0.009814     -0.011297
     12.67161     17.83312     12.29055         0.010289      0.002720      0.006430
      9.65146     14.24982     13.11211         0.013731     -0.004916      0.018342
     13.62791     13.30477     10.51582        -0.001182     -0.001549     -0.003935
     15.45714     18.19756     12.17535         0.004873     -0.010184      0.013562
     15.10356     10.88699     11.67585        -0.001922     -0.006476     -0.002322
     18.14117     18.38076     12.70461         0.006298     -0.002593      0.009901
     14.09283     19.22075     14.35755        -0.018962      0.006119      0.000494
     11.32602     19.63322     13.92039        -0.015170      0.012137     -0.022899
     10.18027     11.56231     13.73833         0.003621      0.004584      0.012492
     12.72448     13.20838     13.36657         0.008085      0.005408     -0.008284
     12.12436     11.48002     15.69787        -0.000498     -0.014374     -0.005577
     18.42874     13.36677     13.41898        -0.007632     -0.010503     -0.013267
     15.63726     13.49735     12.63800         0.007269     -0.004775     -0.003853
     17.20076     15.82375     12.78548         0.002433      0.000814     -0.004298
     14.27999     15.80685     13.58398         0.002176     -0.014476      0.001134
     15.21905      8.86385     13.51846        -0.004999     -0.004768     -0.000859
     17.31298     10.74416     13.46555         0.001699     -0.006303      0.001073
     11.68029     15.60826     14.56444         0.000714     -0.008594      0.009288
     16.40477     14.67576     15.17846         0.018724      0.017831      0.008721
     19.76309     11.20712     14.57604         0.001383     -0.000406      0.006692
     12.53015     20.01838     16.49086        -0.002900      0.016449     -0.009641
     16.36623     17.59735     14.86629        -0.010518      0.010079     -0.001827
     13.59840      9.19180     15.68183         0.011854     -0.021423      0.019276
     10.24796     13.45150     15.88294        -0.014612     -0.003238      0.021838
     16.38004      9.71080     16.06119        -0.004166     -0.009571     -0.001035
     14.78315     11.60561     14.57493        -0.003314     -0.001173      0.002081
     13.69767     14.01044     15.93822         0.006946     -0.014400     -0.005125
     10.03347     17.25491     13.10183        -0.011415     -0.005630      0.005355
     12.12502     13.02368     18.10511         0.013215     -0.003050     -0.004730
     15.12276     19.04046     17.06968        -0.017005     -0.003937     -0.002401
     13.68764     16.87822     16.13404         0.003017     -0.016119     -0.001381
     16.05833     13.64982     17.71268         0.013709      0.010422      0.007898
     17.63853     12.22402     15.96120        -0.012080     -0.002424     -0.008115
     10.72936     17.96145     16.01883         0.017367      0.009586     -0.011580
      8.99134     15.88966     15.40963         0.007656      0.012964     -0.007539
     16.24312     16.41334     17.43376        -0.002332      0.022949      0.012565
     14.37031     11.32448     17.39865        -0.002871     -0.019280      0.004781
     14.47092     12.80852     19.79590         0.006746      0.005326     -0.006238
     14.95576     17.68260     19.56574        -0.002721      0.008246      0.013765
     16.89479     11.13146     18.49775        -0.003400     -0.003922     -0.002921
     13.69412     15.31792     18.67879         0.002192     -0.002030     -0.002344
     11.18236     15.58495     17.41834         0.001586      0.004694     -0.000722
     12.44767     17.95908     18.37455        -0.004603      0.004079     -0.006953
     16.13088     15.18407     20.03479        -0.003549      0.007519      0.009042
    total drift:                                0.076360     -0.016480      0.088171

  FREE ENERGIE OF THE ION-ELECTRON SYSTEM (eV)
  free  energy   TOTEN  =      -121.05758088 eV

  energy  without entropy=     -121.05758088  energy(sigma->0) =     -121.05758088

 d Force = 0.5285018E-03[ 0.481E-03, 0.576E-03]  d Energy = 0.5980317E-03-0.695E-04
 d Force = 0.5697797E+01[ 0.570E+01, 0.570E+01]  d Ewald  = 0.5697797E+01 0.227E-07

 reached required accuracy - stopping structural energy minimisation