 vasp.5.3.5 31Mar14 (build Feb 01 2018 12:10:03) gamma-only

 executed on             LinuxIFC date 2019.03.25  12:16:57

 INCAR:
 POTCAR:    PAW_PBE Ag 02Apr2005
 POTCAR:    PAW_PBE Ag 02Apr2005
   VRHFIN =Ag : s1 d10

   TITEL  = PAW_PBE Ag 02Apr2005
   POMASS =  107.868; ZVAL   =   11.000    mass and valenz
   ENMAX  =  249.844; ENMIN  =  187.383 eV

  PAW_PBE Ag 02Apr2005                  :

 POSCAR: Pt55, -280.07170371 <s> Ag </s>
  positions in direct lattice
 exchange correlation table for  LEXCH =        8
   RHO(1)=    0.500       N(1)  =     2000
   RHO(2)=  100.500       N(2)  =     4000

 ion  position               nearest neighbor table
   1  0.341  0.469  0.619-  35 2.77  41 2.79  22 2.89   5 2.89  40 2.89  45 2.90   2 2.95  39 3.02

   2  0.464  0.448  0.586-  44 2.76  41 2.77  20 2.79  39 2.84  27 2.84  47 2.85   5 2.87   4 2.92
                            22 2.92  37 2.93   1 2.95  18 2.98
   3  0.660  0.369  0.460-   8 2.75   6 2.76  30 2.80   4 2.81  21 2.84  28 2.85   9 3.13  50 3.45

[...]

  14  0.513  0.647  0.366-  15 2.69  12 2.80  13 2.86  48 2.86  17 2.87  24 2.93  32 2.93
  15  0.400  0.613  0.363-  32 2.66  24 2.66  16 2.68  10 2.69  14 2.69
  16  0.337  0.597  0.460-  15 2.68  39 2.74  35 2.79  10 2.88  51 2.88  40 2.90  24 2.91
  17  0.545  0.723  0.460-  53 2.80  25 2.84  14 2.87  24 2.89  46 2.90  48 2.92  12 2.99  26 3.07

[...]

  34  0.668  0.675  0.632-  49 2.67  26 2.75  23 2.77  25 2.88  52 2.92  11 3.54
  35  0.295  0.569  0.570-  45 2.77  39 2.77   1 2.77  40 2.77  16 2.79  51 2.80
  36  0.545  0.490  0.408-  44 2.68  55 2.71  32 2.75  13 2.79  27 2.80  21 2.81   4 2.85  12 2.85
                            28 2.99   9 3.07  43 3.08
  37  0.501  0.562  0.630-  29 2.71  44 2.75  54 2.82  23 2.82  53 2.86  49 2.90  39 2.91  18 2.92
                            33 2.92   2 2.93  22 2.98  45 3.01
  38  0.718  0.519  0.604-  52 2.67   8 2.69  11 2.70   7 2.86   9 3.01  49 3.04  18 3.14
  39  0.410  0.550  0.542-  44 2.74  16 2.74  35 2.77  27 2.81  53 2.81   2 2.84  51 2.85  37 2.91
                            45 2.91  40 2.94   1 3.02
  40  0.317  0.477  0.495-  19 2.77  35 2.77   1 2.89   5 2.90  16 2.90  10 2.90  39 2.94  27 2.97

[...]

  52  0.655  0.563  0.691-  38 2.67  23 2.75  54 2.77   7 2.91  34 2.92  49 2.92  18 3.20
  53  0.495  0.638  0.531-  44 2.68  46 2.71  24 2.75  17 2.80  26 2.81  39 2.81  12 2.85  37 2.86
                            33 2.98  49 3.05  51 3.05
  54  0.554  0.505  0.724-  52 2.77  37 2.82  20 2.82  22 2.89  29 2.89  18 2.91   7 3.16  23 3.30

  55  0.555  0.448  0.299-  36 2.71  21 2.75  32 2.77  43 2.81  28 2.82  13 2.90

  LATTYP: Found a simple cubic cell.
 ALAT       =    22.9590203092

  Lattice vectors:

 A1 = (  22.9590203092,   0.0000000000,   0.0000000000)
 A2 = (   0.0000000000,  22.9590203092,   0.0000000000)
 A3 = (   0.0000000000,   0.0000000000,  22.9590203092)

Analysis of symmetry for initial positions (statically):
 Subroutine PRICEL returns:
 Original cell was already a primitive cell.

 Routine SETGRP: Setting up the symmetry group for a
 simple cubic supercell.

 Subroutine GETGRP returns: Found  1 space group operations
 (whereof  1 operations were pure point group operations)
 out of a pool of 48 trial point group operations.

The static configuration has the point symmetry C_1 .

Analysis of symmetry for dynamics (positions and initial velocities):
 Subroutine PRICEL returns:
 Original cell was already a primitive cell.

 Routine SETGRP: Setting up the symmetry group for a
 simple cubic supercell.

 Subroutine GETGRP returns: Found  1 space group operations
 (whereof  1 operations were pure point group operations)
 out of a pool of 48 trial point group operations.

The dynamic configuration has the point symmetry C_1 .

Analysis of magnetic symmetry:
 Subroutine PRICEL returns:
 Original cell was already a primitive cell.

 Subroutine MAGSYM returns: Found  1 space group operations
 (whereof  1 operations were pure point group operations)
 out of a pool of  1 trial space group operations
 (whereof  1 operations were pure point group operations)
 and found also     1 'primitive' translations

The magnetic configuration has the point symmetry C_1 .

 KPOINTS: Gamma-point only
  k-points in reciprocal lattice
Space group operators:
 irot       det(A)        alpha          n_x          n_y          n_z        tau_x        tau_y        tau_z
    1     1.000000     0.000001     1.000000     0.000000     0.000000     0.000000     0.000000     0.000000

 I would recommend the setting:
   dimension x,y,z NGX =    89 NGY =   89 NGZ =   89
 SYSTEM =  unknown system
 POSCAR =  Pt55, -280.07170371 <s> Ag </s>

 Startparameter for this run:
   NWRITE =      2    write-flag & timer
   PREC   = normal    normal or accurate (medium, high low for compatibility)
   ISTART =      0    job   : 0-new  1-cont  2-samecut
   ICHARG =      2    charge: 1-file 2-atom 10-const
   ISPIN  =      2    spin polarized calculation?
   LNONCOLLINEAR =      F non collinear calculations
   LSORBIT =      F    spin-orbit coupling
   INIWAV =      1    electr: 0-lowe 1-rand  2-diag
   LASPH  =      F    aspherical Exc in radial PAW
   METAGGA=      F    non-selfconsistent MetaGGA calc.

 Electronic Relaxation 1
   ENCUT  =  249.8 eV  18.36 Ry    4.29 a.u.  29.59 29.59 29.59*2*pi/ulx,y,z
   ENINI  =  249.8     initial cutoff
   ENAUG  =  412.5 eV  augmentation charge cutoff
   NELM   =     60;   NELMIN=  2; NELMDL= -5     # of ELM steps
   EDIFF  = 0.1E-03   stopping-criterion for ELM
   LREAL  =      F    real-space projection
   NLSPLINE    = F    spline interpolate recip. space projectors
   LCOMPAT=      F    compatible to vasp.4.4
   GGA_COMPAT  = T    GGA compatible to vasp.4.4-vasp.4.6
   LMAXPAW     = -100 max onsite density
   LMAXMIX     =    2 max onsite mixed and CHGCAR
   VOSKOWN=      0    Vosko Wilk Nusair interpolation
   ROPT   =    0.00000
 Ionic relaxation
   EDIFFG = 0.1E-02   stopping-criterion for IOM
   NSW    =   1000    number of steps for IOM
   NBLOCK =      1;   KBLOCK =   1000    inner block; outer block
   IBRION =      2    ionic relax: 0-MD 1-quasi-New 2-CG
   NFREE  =      1    steps in history (QN), initial steepest desc. (CG)
   ISIF   =      2    stress and relaxation
   IWAVPR =     11    prediction:  0-non 1-charg 2-wave 3-comb
   ISYM   =      2    0-nonsym 1-usesym 2-fastsym
   LCORR  =      T    Harris-Foulkes like correction to forces

   POTIM  = 0.1000    time-step for ionic-motion
   TEIN   =    0.0    initial temperature
   TEBEG  =    0.0;   TEEND  =   0.0 temperature during run
   SMASS  =  -3.00    Nose mass-parameter (am)
   estimated Nose-frequenzy (Omega)   =  0.10E-29 period in steps =****** mass=  -0.120E-25a.u.
   SCALEE = 1.0000    scale energy and forces
   NPACO  =    256;   APACO  = 16.0  distance and # of slots for P.C.
   PSTRESS=    0.0 pullay stress

  Mass of Ions in am
   POMASS = 107.87
  Ionic Valenz
   ZVAL   =  11.00
  Atomic Wigner-Seitz radii
  virtual crystal weights
   VCA    =   1.00
   NELECT =     605.0000    total number of electrons
   NUPDOWN=      -1.0000    fix difference up-down

 DOS related values:
   EMIN   =  10.00;   EMAX   =-10.00  energy-range for DOS
   EFERMI =   0.00
   ISMEAR =     0;   SIGMA  =   0.00  broadening in eV -4-tet -1-fermi 0-gaus

 Electronic relaxation 2 (details)
   IALGO  =     38    algorithm
   LDIAG  =      T    sub-space diagonalisation (order eigenvalues)
   LSUBROT=      F    optimize rotation matrix (better conditioning)
   TURBO    =      0    0=normal 1=particle mesh
   IRESTART =      0    0=no restart 2=restart with 2 vectors
   NREBOOT  =      0    no. of reboots
   NMIN     =      0    reboot dimension
   EREF     =   0.00    reference energy to select bands
   IMIX   =      4    mixing-type and parameters
     AMIX     =   0.40;   BMIX     =  1.00
     AMIX_MAG =   1.60;   BMIX_MAG =  1.00
     AMIN     =   0.10
     WC   =   100.;   INIMIX=   1;  MIXPRE=   1;  MAXMIX= -45

 Intra band minimization:
   WEIMIN = 0.0010     energy-eigenvalue tresh-hold
   EBREAK =  0.64E-07  absolut break condition
   DEPER  =   0.30     relativ break condition

   TIME   =   0.40     timestep for ELM

  volume/ion in A,a.u.               =     220.04      1484.89
  Fermi-wavevector in a.u.,A,eV,Ry     =   0.603078  1.139652  4.948476  0.363703
  Thomas-Fermi vector in A             =   1.655924

 Write flags
   LWAVE  =      F    write WAVECAR
   LCHARG =      F    write CHGCAR
   LVTOT  =      F    write LOCPOT, total local potential
   LVHAR  =      F    write LOCPOT, Hartree potential only
   LELF   =      F    write electronic localiz. function (ELF)
   LORBIT =      0    0 simple, 1 ext, 2 COOP (PROOUT)

 Dipole corrections
   LMONO  =      F    monopole corrections only (constant potential shift)
   LDIPOL =      F    correct potential (dipole corrections)
   IDIPOL =      0    1-x, 2-y, 3-z, 4-all directions
   EPSILON=  1.0000000 bulk dielectric constant

 Exchange correlation treatment:
   GGA     =    PE    GGA type
   VOSKOWN=      0    Vosko Wilk Nusair interpolation
   LHFCALC =     F    Hartree Fock is set to
   LHFONE  =     F    Hartree Fock one center treatment
   AEXX    =    0.0000 exact exchange contribution

 Linear response parameters
   LEPSILON=     F    determine dielectric tensor
   LRPA    =     F    only Hartree local field effects (RPA)
   LNABLA  =     F    use nabla operator in PAW spheres
   LVEL    =     F    velocity operator in full k-point grid
   LINTERFAST=   F  fast interpolation
   KINTER  =     0    interpolate to denser k-point grid
   CSHIFT  =0.1000    complex shift for real part using Kramers Kronig
   OMEGAMAX=  -1.0    maximum frequency
   DEG_THRESHOLD= 0.2000000E-02 threshold for treating states as degnerate
   RTIME   =    0.100 relaxation time in fs

 Orbital magnetization related:
   ORBITALMAG=     F  switch on orbital magnetization
   LCHIMAG   =     F  perturbation theory with respect to B field
   DQ        =  0.001000  dq finite difference perturbation B field

 conjugate gradient relaxation of ions
 charge density and potential will be updated during run
 spin polarized calculation
 Variant of blocked Davidson
 Davidson routine will perform the subspace rotation
 perform sub-space diagonalisation
    after iterative eigenvector-optimisation
 modified Broyden-mixing scheme, WC =      100.0
 initial mixing is a Kerker type mixing with AMIX =  0.4000 and BMIX =      1.0000
 Hartree-type preconditioning will be used
 using additional bands           89
 reciprocal scheme for non local part
 use partial core corrections
 calculate Harris-corrections to forces
   (improved forces if not selfconsistent)
 use gradient corrections
 use of overlap-Matrix (Vanderbilt PP)
 Gauss-broadening in eV      SIGMA  =   0.00

  energy-cutoff  :      249.84
  volume of cell :    12102.08
      direct lattice vectors                 reciprocal lattice vectors
    22.959020309  0.000000000  0.000000000     0.043555865  0.000000000  0.000000000
     0.000000000 22.959020309  0.000000000     0.000000000  0.043555865  0.000000000
[...]
      8      -9.0488      1.00000
      9      -9.0234      1.00000
     10      -8.8912      1.00000
     11      -8.8137      1.00000
     12      -8.7690      1.00000
     13      -8.7478      1.00000
     14      -8.7276      1.00000
     15      -8.7094      1.00000
     16      -8.6521      1.00000
     17      -8.6463      1.00000
     18      -8.5901      1.00000
     19      -8.5805      1.00000
     20      -8.5759      1.00000
     21      -8.5654      1.00000
     22      -8.5457      1.00000
     23      -8.5438      1.00000
     24      -8.5422      1.00000
     25      -8.5254      1.00000
     26      -8.5138      1.00000
     27      -8.4975      1.00000
     28      -8.4872      1.00000
     29      -8.4795      1.00000
     30      -8.4764      1.00000
     31      -8.4702      1.00000
     32      -8.4526      1.00000
     33      -8.4348      1.00000
     34      -8.4129      1.00000
     35      -8.4073      1.00000
     36      -8.3895      1.00000
     37      -8.3846      1.00000
     38      -8.3783      1.00000
     39      -8.3639      1.00000
     40      -8.3557      1.00000
     41      -8.3396      1.00000
     42      -8.3276      1.00000
     43      -8.3256      1.00000
     44      -8.3120      1.00000
     45      -8.3038      1.00000
     46      -8.2671      1.00000
     47      -8.2551      1.00000
     48      -8.2545      1.00000
     49      -8.2393      1.00000
     50      -8.2312      1.00000
     51      -8.2269      1.00000
     52      -8.2055      1.00000
     53      -8.1572      1.00000
     54      -8.1406      1.00000
     55      -8.1313      1.00000
     56      -8.1219      1.00000
     57      -8.1185      1.00000
     58      -8.1052      1.00000
     59      -8.0923      1.00000
     60      -8.0915      1.00000
[...]
    378       1.5786      0.00000
    379       1.5807      0.00000
    380       1.5946      0.00000
    381       1.6167      0.00000
    382       1.6281      0.00000
    383       1.6403      0.00000
    384       1.6510      0.00000
    385       1.6602      0.00000
    386       1.6797      0.00000
    387       1.7411      0.00000
    388       1.7602      0.00000
    389       1.7833      0.00000
    390       1.8195      0.00000
    391       1.8340      0.00000
    392       1.8827      0.00000

[...]

 soft charge-density along one line, spin component           2
         0         1         2         3         4         5         6         7         8         9
 total charge-density along one line

------------------------ aborting loop because EDIFF is reached ----------------------------------------

  FORCE on cell =-STRESS in cart. coord.  units (eV):
  Direction    XX          YY          ZZ          XY          YZ          ZX
  Alpha Z   212.60795   212.60795   212.60795
  Ewald   58110.63617 56796.01184 55779.21748   145.49693   964.47329    97.93145
  Hartree 76351.00497 75102.45898 74153.96722   107.08059   892.01537   129.30233
  E(xc)   -3190.38924 -3190.50588 -3190.66761     0.15902     0.14563    -0.16291
  Local  ************************************  -249.85679 -1854.60584  -230.52801
  n-local  -561.41194  -561.44893  -560.81035    -0.65977     0.00869     0.32454
  augment  5054.96375  5055.44252  5055.99690    -0.63579    -0.55946     0.83139
  Kinetic  7524.67481  7525.71688  7527.62138    -1.88288    -1.51916     2.13497
  Fock        0.00000     0.00000     0.00000     0.00000     0.00000     0.00000
  Total     -18.75890   -18.87696   -18.28073    -0.29869    -0.04149    -0.16624
  in kB      -2.48346    -2.49909    -2.42016    -0.03954    -0.00549    -0.02201

 VOLUME and BASIS-vectors are now :
  energy-cutoff  :      249.84
  volume of cell :    12102.08
      direct lattice vectors                 reciprocal lattice vectors
    22.959020309  0.000000000  0.000000000     0.043555865  0.000000000  0.000000000
     0.000000000 22.959020309  0.000000000     0.000000000  0.043555865  0.000000000
     0.000000000  0.000000000 22.959020309     0.000000000  0.000000000  0.043555865

  length of vectors
    22.959020309 22.959020309 22.959020309     0.043555865  0.043555865  0.043555865

 FORCES acting on ions
    electron-ion (+dipol)            ewald-force                    non-local-force                 convergence-correction
   0.158E+04 0.498E+03 -.891E+03   -.158E+04 -.497E+03 0.890E+03   -.217E+01 -.923E+00 0.111E+01   -.324E-02 0.233E-04 0.395E-02
   0.511E+03 0.675E+03 -.628E+03   -.511E+03 -.674E+03 0.627E+03   -.612E+00 -.994E+00 0.959E+00   0.766E-02 0.124E-01 -.143E-01
   -.125E+04 0.132E+04 0.480E+03   0.125E+04 -.131E+04 -.479E+03   0.178E+01 -.206E+01 -.598E+00   -.458E-02 -.169E-01 0.176E-01
   -.236E+03 0.101E+04 0.135E+03   0.235E+03 -.101E+04 -.135E+03   0.362E+00 -.150E+01 -.139E+00   -.164E-01 0.194E-01 -.120E-01
   0.130E+04 0.134E+04 -.196E+03   -.130E+04 -.134E+04 0.195E+03   -.185E+01 -.172E+01 0.495E+00   -.892E-02 0.345E-02 -.187E-02
   -.183E+04 0.378E+03 0.441E+03   0.182E+04 -.378E+03 -.440E+03   0.486E+01 -.839E+00 -.738E+00   0.287E-01 -.160E-01 -.323E-02
   -.110E+04 0.768E+03 -.141E+04   0.110E+04 -.766E+03 0.140E+04   0.234E+01 -.204E+01 0.346E+01   0.152E-01 -.161E-02 0.800E-02
   -.156E+04 0.981E+03 -.444E+03   0.156E+04 -.980E+03 0.443E+03   0.259E+01 -.161E+01 0.703E+00   0.178E-01 -.108E-01 0.756E-02
   -.101E+04 0.214E+03 0.244E+03   0.101E+04 -.214E+03 -.244E+03   0.156E+01 -.444E+00 -.438E+00   -.529E-01 0.122E-01 0.260E-01
   0.129E+04 0.107E+03 0.123E+04   -.129E+04 -.106E+03 -.123E+04   -.188E+01 -.887E-01 -.125E+01   -.468E-02 0.691E-02 -.337E-03
   -.174E+04 -.680E+03 0.109E+03   0.174E+04 0.679E+03 -.109E+03   0.268E+01 0.113E+01 -.393E+00   0.172E-02 0.344E-02 0.536E-02
   -.427E+03 -.687E+03 0.667E+03   0.426E+03 0.686E+03 -.666E+03   0.981E+00 0.101E+01 -.873E+00   0.152E-01 -.126E-01 0.307E-01
   -.606E+03 -.397E+03 0.171E+04   0.604E+03 0.396E+03 -.170E+04   0.125E+01 0.188E+00 -.294E+01   0.161E-01 -.352E-02 0.257E-02
   0.191E+03 -.106E+04 0.138E+04   -.191E+03 0.105E+04 -.138E+04   0.245E+00 0.113E+01 -.135E+01   0.642E-02 -.106E-01 0.178E-01
   0.100E+04 -.755E+03 0.133E+04   -.100E+04 0.753E+03 -.133E+04   -.261E+01 0.186E+01 -.342E+01   -.421E-02 0.112E-01 -.338E-02
   0.153E+04 -.653E+03 0.629E+03   -.153E+04 0.652E+03 -.628E+03   -.205E+01 0.377E+00 -.855E+00   -.471E-02 0.637E-02 -.392E-03
   -.146E+03 -.173E+04 0.634E+03   0.146E+03 0.173E+04 -.633E+03   0.290E+00 0.311E+01 -.525E+00   0.308E-02 0.498E-02 0.435E-02
   -.600E+03 0.437E+03 -.787E+03   0.599E+03 -.437E+03 0.785E+03   0.106E+01 -.581E+00 0.115E+01   -.131E-01 0.153E-01 -.330E-01
   0.136E+04 0.112E+04 0.840E+03   -.136E+04 -.112E+04 -.838E+03   -.387E+01 -.279E+01 -.249E+01   -.101E-01 0.969E-02 -.450E-02
   -.110E+03 0.119E+04 -.148E+04   0.110E+03 -.118E+04 0.148E+04   0.136E+00 -.184E+01 0.252E+01   0.175E-02 -.422E-02 -.135E-01
   -.122E+04 0.606E+03 0.130E+04   0.122E+04 -.606E+03 -.130E+04   0.167E+01 -.279E+00 -.205E+01   -.924E-02 -.111E-01 0.643E-02
   0.782E+03 0.384E+03 -.167E+04   -.780E+03 -.384E+03 0.167E+04   -.173E+01 -.293E+00 0.231E+01   0.314E-02 -.484E-02 -.223E-02
   -.433E+03 -.111E+04 -.145E+04   0.432E+03 0.110E+04 0.145E+04   0.590E+00 0.148E+01 0.233E+01   0.293E-02 -.328E-03 0.546E-02
   0.870E+03 -.136E+04 0.739E+03   -.869E+03 0.136E+04 -.738E+03   -.950E+00 0.184E+01 -.599E+00   -.367E-02 0.109E-01 0.243E-02
   -.113E+04 -.149E+04 0.214E+03   0.113E+04 0.148E+04 -.213E+03   0.174E+01 0.224E+01 -.507E+00   0.112E-01 0.143E-01 -.759E-02
   -.439E+03 -.172E+04 -.584E+03   0.438E+03 0.171E+04 0.584E+03   0.717E+00 0.262E+01 0.375E+00   0.247E-02 -.154E-02 -.125E-01
   0.738E+03 0.479E+03 0.517E+03   -.737E+03 -.478E+03 -.516E+03   -.121E+01 -.103E+01 -.738E+00   0.131E-01 0.575E-02 -.228E-02
   -.397E+03 0.141E+04 0.119E+04   0.397E+03 -.140E+04 -.119E+04   0.313E+00 -.193E+01 -.167E+01   -.818E-02 -.206E-03 0.248E-02
   0.433E+03 -.615E+03 -.179E+04   -.432E+03 0.613E+03 0.178E+04   -.916E+00 0.165E+01 0.507E+01   0.304E-02 -.146E-02 0.132E-02
   -.422E+03 0.187E+04 0.238E+03   0.421E+03 -.186E+04 -.237E+03   0.143E+01 -.517E+01 -.474E+00   -.242E-01 -.815E-02 -.668E-02
   -.148E+04 -.424E+03 0.108E+04   0.148E+04 0.423E+03 -.108E+04   0.212E+01 0.822E+00 -.164E+01   0.400E-02 -.942E-02 0.526E-02
   0.469E+03 -.154E+03 0.169E+04   -.469E+03 0.154E+03 -.168E+04   -.297E+00 -.890E-01 -.217E+01   -.124E-02 0.475E-02 -.762E-02
   0.575E+03 -.141E+04 -.111E+04   -.575E+03 0.141E+04 0.111E+04   -.878E+00 0.201E+01 0.144E+01   0.970E-03 -.130E-02 -.559E-02
   -.134E+04 -.116E+04 -.806E+03   0.134E+04 0.116E+04 0.803E+03   0.356E+01 0.280E+01 0.212E+01   0.314E-01 0.110E-02 0.291E-02
   0.183E+04 -.389E+03 -.393E+03   -.183E+04 0.388E+03 0.392E+03   -.519E+01 0.112E+01 0.765E+00   -.485E-02 0.407E-02 0.427E-02
   -.105E+03 0.212E+03 0.989E+03   0.105E+03 -.212E+03 -.988E+03   0.411E+00 -.585E+00 -.156E+01   -.905E-02 0.614E-02 0.204E-01
   0.223E+03 -.345E+03 -.969E+03   -.223E+03 0.344E+03 0.967E+03   -.297E+00 0.462E+00 0.141E+01   -.106E-02 -.346E-02 -.138E-01
   -.169E+04 -.229E+02 -.704E+03   0.169E+04 0.228E+02 0.703E+03   0.215E+01 0.146E+00 0.712E+00   0.544E-02 -.559E-02 0.141E-02
   0.981E+03 -.255E+03 -.791E+02   -.979E+03 0.255E+03 0.788E+02   -.165E+01 0.344E+00 0.335E+00   0.624E-02 0.461E-02 0.565E-02
   0.178E+04 0.401E+03 0.264E+03   -.178E+04 -.400E+03 -.264E+03   -.301E+01 -.921E+00 -.599E-01   -.128E-01 0.376E-02 -.366E-02
   0.933E+03 0.127E+04 -.118E+04   -.930E+03 -.127E+04 0.118E+04   -.244E+01 -.353E+01 0.328E+01   -.327E-02 -.345E-03 0.135E-02
   0.549E+03 0.168E+04 0.606E+03   -.548E+03 -.168E+04 -.605E+03   -.588E+00 -.236E+01 -.312E+00   -.114E-01 0.638E-02 -.198E-02
   0.598E+03 0.942E+03 0.149E+04   -.597E+03 -.940E+03 -.149E+04   -.723E+00 -.183E+01 -.238E+01   -.628E-02 0.555E-02 0.527E-02
   0.871E+02 -.857E+02 0.137E+03   -.873E+02 0.860E+02 -.137E+03   0.207E+00 -.285E+00 0.411E+00   0.195E-01 -.280E-01 0.709E-02
   0.130E+04 -.567E+03 -.124E+04   -.130E+04 0.567E+03 0.124E+04   -.154E+01 0.287E+00 0.195E+01   0.216E-02 -.151E-02 0.540E-03
   0.526E+03 -.183E+04 -.158E+03   -.525E+03 0.183E+04 0.158E+03   -.152E+01 0.513E+01 0.138E+00   0.600E-02 -.398E-02 0.374E-02
   0.306E+03 0.177E+04 -.544E+03   -.305E+03 -.177E+04 0.544E+03   -.920E+00 -.268E+01 0.280E+00   -.455E-02 0.377E-03 -.717E-02
   -.874E+03 -.125E+04 0.120E+04   0.871E+03 0.125E+04 -.120E+04   0.230E+01 0.342E+01 -.323E+01   0.113E-01 0.203E-02 -.115E-01
   -.725E+03 -.652E+03 -.451E+03   0.724E+03 0.651E+03 0.451E+03   0.109E+01 0.103E+01 0.735E+00   -.215E-01 -.257E-01 -.162E-01
   -.775E+03 0.155E+04 -.725E+03   0.773E+03 -.155E+04 0.724E+03   0.144E+01 -.211E+01 0.103E+01   0.236E-02 -.233E-02 -.130E-01
   0.134E+04 -.127E+04 -.286E+03   -.134E+04 0.127E+04 0.285E+03   -.212E+01 0.215E+01 0.817E+00   0.450E-02 0.152E-02 0.443E-02
   -.112E+04 -.348E+03 -.150E+04   0.112E+04 0.348E+03 0.149E+04   0.175E+01 0.480E+00 0.260E+01   0.899E-02 0.364E-02 0.210E-03
   0.298E+03 -.975E+03 0.224E+02   -.298E+03 0.973E+03 -.227E+02   -.361E+00 0.166E+01 0.265E+00   -.440E-02 0.101E-01 0.331E-02
   -.296E+03 0.181E+03 -.182E+04   0.296E+03 -.181E+03 0.182E+04   0.643E+00 -.225E-02 0.260E+01   0.606E-02 -.108E-02 -.544E-02
   -.321E+03 0.596E+03 0.180E+04   0.320E+03 -.594E+03 -.179E+04   0.672E+00 -.136E+01 -.511E+01   -.777E-02 -.459E-02 -.339E-02
   -.157E+01 0.150E+01 -.293E+01   -.455E-12 0.227E-12 -.318E-11   0.155E+01 -.137E+01 0.289E+01   0.239E-02 -.611E-03 0.649E-03

 POSITION                                       TOTAL-FORCE (eV/Angst)
      7.90199     10.75378     14.23450         0.001854     -0.000220     -0.001236
     10.65578     10.22942     13.60351         0.004255      0.000347      0.002021
     15.21836      8.59444     10.78855         0.005174      0.010004     -0.014065
     12.57875      9.32827     11.62674         0.005484      0.004412      0.009724
      8.64038      8.54008     12.43344         0.006188     -0.005646      0.001680
     17.15956     10.90709     10.79143         0.008008      0.008776     -0.002339
     15.19495      9.96875     15.83845        -0.004185     -0.005446      0.005340
     16.30235      9.40167     13.18722        -0.012171      0.007739     -0.006032
     14.63325     11.42629     11.38880        -0.011394      0.004010     -0.001844
      8.41235     11.52360      8.70227         0.002871     -0.007365     -0.000713
     16.55961     13.70804     11.76960         0.000849     -0.001387     -0.005222
     13.32453     13.80833     10.30876        -0.011536     -0.005967     -0.009258
     13.63718     12.95949      7.49258        -0.013566      0.004810     -0.004835
     11.63033     14.83240      8.30115        -0.006475      0.007977     -0.017057
      8.92201     14.19434      7.98742        -0.000362     -0.007603      0.000136
      7.68061     13.70941     10.45389         0.001815     -0.005193     -0.001213
     12.42708     16.58644     10.44226        -0.004401     -0.002070     -0.001530
     13.53217     10.89528     13.97519        -0.002721      0.005402     -0.004990
      8.10071      8.77818      9.62351         0.006687     -0.009513      0.002291
     12.18022      9.01199     15.66341        -0.003033      0.002553      0.014575
     15.09804     10.41298      8.64281         0.007205      0.009687     -0.010735
      9.99416     11.04222     16.27072        -0.002864      0.002464      0.001648
     13.10567     14.81762     15.75838        -0.002867      0.001018      0.001739
      9.65375     15.76180     10.17654         0.002701     -0.005691     -0.001012
     14.95579     15.90930     11.47075        -0.009225     -0.010368      0.006489
     13.07246     16.48928     13.48920        -0.006119      0.003959      0.006283
     10.01560     10.42610     10.74337         0.004458     -0.004289      0.002421
     12.99749      8.36178      8.95232         0.003910      0.000027     -0.000953
     10.75641     13.72812     17.04376        -0.003083      0.002799      0.002072
     13.11540      6.65662     11.28393         0.021513      0.003368      0.004199
     15.87342     13.05108      9.19457        -0.003783      0.010520     -0.007935
     10.81293     12.24580      7.34581        -0.000051     -0.004586      0.002917
     10.52538     15.62916     14.82417        -0.001411      0.002067      0.000100
     15.74538     15.19747     14.25319        -0.011235      0.011894      0.006577
      6.65206     13.07916     13.09300         0.000660     -0.003062     -0.002526
     12.45388     11.18266      9.36540         0.004364     -0.005233      0.004868
     11.38746     12.89218     14.51680         0.002363     -0.000895      0.001212
     16.33280     11.99870     13.83543        -0.004694      0.005758     -0.000454
      9.29011     12.58034     12.48370        -0.000136     -0.001708     -0.000373
      7.26320     10.93443     11.31220         0.006121     -0.004526      0.001295
      9.36200      8.44713     15.24559         0.000429     -0.002123      0.002226
     10.56720      7.60773     10.40839         0.011882     -0.003679      0.001771
     10.44266      9.47859      8.12079         0.005344     -0.003427     -0.000959
     11.94396     12.04105     11.91623         0.011173     -0.005353     -0.002104
      8.61826     13.46778     15.14120        -0.001731      0.000978     -0.001222
     10.50890     17.31074     12.48742        -0.003044     -0.001948     -0.002066
     11.21312      7.42261     13.31002         0.004876     -0.001403      0.004517
     14.48291     15.54429      8.60643        -0.003310      0.005897      0.002716
     13.88443     13.64868     13.17571        -0.002885     -0.006018     -0.005420
     13.99086      7.99617     13.72324        -0.002005     -0.000280      0.012953
      8.47921     15.27203     12.78902        -0.000710     -0.001209     -0.003246
     15.08573     12.93834     16.01493        -0.006778     -0.002730      0.000828
     11.27328     14.68303     12.20502         0.002303      0.001685      0.002138
     12.75417     11.62589     16.67554        -0.006237      0.000767      0.007515
     12.89856     10.26065      6.81050         0.009525      0.000019     -0.002914
    total drift:                               -0.021803      0.125613     -0.033290

  FREE ENERGIE OF THE ION-ELECTRON SYSTEM (eV)
  free  energy   TOTEN  =      -123.25451769 eV

  energy  without entropy=     -123.25451769  energy(sigma->0) =     -123.25451769

 d Force = 0.7698577E-04[-0.176E-03, 0.330E-03]  d Energy = 0.3483528E-04 0.422E-04
 d Force = 0.2925723E+01[ 0.292E+01, 0.293E+01]  d Ewald  = 0.2925723E+01-0.303E-06

 reached required accuracy - stopping structural energy minimisation