 vasp.5.3.5 31Mar14 (build Feb 01 2018 12:10:03) gamma-only

 executed on             LinuxIFC date 2019.03.25  00:36:20

 INCAR:
 POTCAR:    PAW_PBE Ag 02Apr2005
 POTCAR:    PAW_PBE Ag 02Apr2005
   VRHFIN =Ag : s1 d10

   TITEL  = PAW_PBE Ag 02Apr2005
   POMASS =  107.868; ZVAL   =   11.000    mass and valenz
   ENMAX  =  249.844; ENMIN  =  187.383 eV

  PAW_PBE Ag 02Apr2005                  :

 POSCAR: Ti50, -335.77153398 <s> Ag </s>
  positions in direct lattice
 exchange correlation table for  LEXCH =        8
   RHO(1)=    0.500       N(1)  =     2000
   RHO(2)=  100.500       N(2)  =     4000

 ion  position               nearest neighbor table
   1  0.362  0.708  0.539-  10 2.62   2 2.68   6 2.78   3 2.81   5 2.86   4 2.89   7 2.96
   2  0.302  0.609  0.550-   8 2.65   1 2.68   4 2.68  12 2.73   7 2.77   9 2.80
   3  0.471  0.760  0.524-   5 2.49   6 2.60  10 2.70  11 2.78  15 2.81   1 2.81
   4  0.374  0.633  0.638-   5 2.63   2 2.68  12 2.72   8 2.83   1 2.89  16 3.07  14 3.07  10 3.39

   5  0.457  0.709  0.618-   3 2.49   4 2.63  14 2.65  11 2.72  10 2.81   1 2.86
   6  0.418  0.720  0.433-   3 2.60  10 2.68   7 2.69  13 2.72   1 2.78  15 2.84
   7  0.354  0.623  0.443-   6 2.69  17 2.74   2 2.77  13 2.81  10 2.87   1 2.96   9 3.37  12 3.39
                            23 3.41
   8  0.320  0.524  0.624-  12 2.53   2 2.65   9 2.82   4 2.83  19 2.83  16 2.90
   9  0.316  0.497  0.505-  27 2.67  12 2.69  25 2.69   2 2.80   8 2.82  17 2.82  26 3.08  19 3.16
                             7 3.37
  10  0.453  0.645  0.514-   1 2.62  21 2.63  12 2.67   6 2.68   3 2.70  15 2.71  11 2.78   5 2.81
                             7 2.87  13 2.89  14 3.07  17 3.22   4 3.39
  11  0.557  0.684  0.561-  15 2.66  14 2.71   5 2.72  10 2.78   3 2.78  21 2.88  20 3.08  22 3.29

[...]

  16  0.439  0.520  0.665-  14 2.59  12 2.66  19 2.74  24 2.79   8 2.90   4 3.07  33 3.08  29 3.36

  17  0.421  0.526  0.449-  23 2.50  31 2.63  12 2.63  26 2.63  13 2.72   7 2.74   9 2.82  25 3.03
                            10 3.22  21 3.27  38 3.28  24 3.44
  18  0.609  0.585  0.386-  41 2.54  22 2.59  31 2.78  21 2.86  32 2.87  34 3.10  15 3.29  13 3.43

[...]

  30  0.519  0.496  0.290-  31 2.35  44 2.80  41 2.89  23 3.02  38 3.05
  31  0.517  0.507  0.391-  30 2.35  36 2.62  17 2.63  18 2.78  38 2.83  13 2.86  41 2.87  44 2.90
                            23 2.90  21 2.94  32 3.23
  32  0.628  0.502  0.477-  34 2.50  21 2.67  22 2.73  36 2.77  35 2.81  37 2.81  47 2.81  18 2.87
                            48 2.94  41 3.04  20 3.05  31 3.23  24 3.54
  33  0.519  0.414  0.657-  29 2.64  43 2.76  24 2.77  28 2.78  37 2.85  45 2.89  16 3.08  19 3.19

  34  0.719  0.516  0.421-  32 2.50  35 2.70  41 2.77  47 2.86  48 2.94  18 3.10  22 3.10
  35  0.727  0.542  0.534-  42 2.60  22 2.66  48 2.69  34 2.70  20 2.73  32 2.81
  36  0.542  0.419  0.459-  28 2.55  31 2.62  44 2.62  46 2.67  32 2.77  26 2.88  49 2.91  47 3.06
                            37 3.10  24 3.13  38 3.24
  37  0.609  0.432  0.575-  42 2.68  50 2.71  43 2.71  49 2.73  45 2.76  24 2.77  29 2.78  32 2.81
                            28 2.82  33 2.85  48 3.06  36 3.10  20 3.28
  38  0.441  0.416  0.362-  23 2.75  25 2.77  44 2.78  31 2.83  40 2.84  26 2.89  46 2.98  30 3.05
                            36 3.24  17 3.28
  39  0.402  0.316  0.532-  27 2.62  26 2.63  40 2.71  28 2.78  46 2.84  19 3.08
  40  0.371  0.334  0.421-  25 2.62  46 2.64  27 2.68  26 2.69  39 2.71  38 2.84
  41  0.630  0.485  0.346-  18 2.54  47 2.56  44 2.60  34 2.77  31 2.87  30 2.89  32 3.04
  42  0.703  0.478  0.624-  35 2.60  37 2.68  43 2.72  50 2.76  48 2.87  20 2.95  29 2.99
  43  0.635  0.404  0.686-  50 2.65  45 2.67  29 2.68  37 2.71  42 2.72  33 2.76
  44  0.559  0.397  0.348-  41 2.60  36 2.62  38 2.78  30 2.80  47 2.90  31 2.90  46 3.26
  45  0.593  0.321  0.617-  50 2.61  28 2.66  43 2.67  49 2.75  37 2.76  33 2.89
  46  0.483  0.322  0.440-  40 2.64  36 2.67  28 2.76  26 2.84  39 2.84  38 2.98  44 3.26
  47  0.666  0.404  0.414-  41 2.56  48 2.70  49 2.73  32 2.81  34 2.86  44 2.90  36 3.06
  48  0.725  0.427  0.512-  50 2.64  35 2.69  47 2.70  42 2.87  32 2.94  34 2.94  49 3.05  37 3.06

  49  0.627  0.339  0.504-  37 2.73  47 2.73  45 2.75  50 2.80  36 2.91  28 2.93  48 3.05
  50  0.698  0.361  0.601-  45 2.61  48 2.64  43 2.65  37 2.71  42 2.76  49 2.80

  LATTYP: Found a simple cubic cell.
 ALAT       =    23.0853426056

  Lattice vectors:

 A1 = (  23.0853426056,   0.0000000000,   0.0000000000)
 A2 = (   0.0000000000,  23.0853426056,   0.0000000000)
 A3 = (   0.0000000000,   0.0000000000,  23.0853426056)

Analysis of symmetry for initial positions (statically):
 Subroutine PRICEL returns:
 Original cell was already a primitive cell.

 Routine SETGRP: Setting up the symmetry group for a
 simple cubic supercell.

 Subroutine GETGRP returns: Found  1 space group operations
 (whereof  1 operations were pure point group operations)
 out of a pool of 48 trial point group operations.

The static configuration has the point symmetry C_1 .

Analysis of symmetry for dynamics (positions and initial velocities):
 Subroutine PRICEL returns:
 Original cell was already a primitive cell.

 Routine SETGRP: Setting up the symmetry group for a
 simple cubic supercell.

 Subroutine GETGRP returns: Found  1 space group operations
 (whereof  1 operations were pure point group operations)
 out of a pool of 48 trial point group operations.

The dynamic configuration has the point symmetry C_1 .

Analysis of magnetic symmetry:
 Subroutine PRICEL returns:
 Original cell was already a primitive cell.

 Subroutine MAGSYM returns: Found  1 space group operations
 (whereof  1 operations were pure point group operations)
 out of a pool of  1 trial space group operations
 (whereof  1 operations were pure point group operations)
 and found also     1 'primitive' translations

The magnetic configuration has the point symmetry C_1 .

 KPOINTS: Gamma-point only
  k-points in reciprocal lattice
Space group operators:
 irot       det(A)        alpha          n_x          n_y          n_z        tau_x        tau_y        tau_z
    1     1.000000     0.000000     1.000000     0.000000     0.000000     0.000000     0.000000     0.000000

 I would recommend the setting:
   dimension x,y,z NGX =    89 NGY =   89 NGZ =   89
 SYSTEM =  unknown system
 POSCAR =  Ti50, -335.77153398 <s> Ag </s>

 Startparameter for this run:
   NWRITE =      2    write-flag & timer
   PREC   = normal    normal or accurate (medium, high low for compatibility)
   ISTART =      0    job   : 0-new  1-cont  2-samecut
   ICHARG =      2    charge: 1-file 2-atom 10-const
   ISPIN  =      2    spin polarized calculation?
   LNONCOLLINEAR =      F non collinear calculations
   LSORBIT =      F    spin-orbit coupling
   INIWAV =      1    electr: 0-lowe 1-rand  2-diag
   LASPH  =      F    aspherical Exc in radial PAW
   METAGGA=      F    non-selfconsistent MetaGGA calc.

 Electronic Relaxation 1
   ENCUT  =  249.8 eV  18.36 Ry    4.29 a.u.  29.75 29.75 29.75*2*pi/ulx,y,z
   ENINI  =  249.8     initial cutoff
   ENAUG  =  412.5 eV  augmentation charge cutoff
   NELM   =     60;   NELMIN=  2; NELMDL= -5     # of ELM steps
   EDIFF  = 0.1E-03   stopping-criterion for ELM
   LREAL  =      F    real-space projection
   NLSPLINE    = F    spline interpolate recip. space projectors
   LCOMPAT=      F    compatible to vasp.4.4
   GGA_COMPAT  = T    GGA compatible to vasp.4.4-vasp.4.6
   LMAXPAW     = -100 max onsite density
   LMAXMIX     =    2 max onsite mixed and CHGCAR
   VOSKOWN=      0    Vosko Wilk Nusair interpolation
   ROPT   =    0.00000
 Ionic relaxation
   EDIFFG = 0.1E-02   stopping-criterion for IOM
   NSW    =   1000    number of steps for IOM
   NBLOCK =      1;   KBLOCK =   1000    inner block; outer block
   IBRION =      2    ionic relax: 0-MD 1-quasi-New 2-CG
   NFREE  =      1    steps in history (QN), initial steepest desc. (CG)
   ISIF   =      2    stress and relaxation
   IWAVPR =     11    prediction:  0-non 1-charg 2-wave 3-comb
   ISYM   =      2    0-nonsym 1-usesym 2-fastsym
   LCORR  =      T    Harris-Foulkes like correction to forces

   POTIM  = 0.1000    time-step for ionic-motion
   TEIN   =    0.0    initial temperature
   TEBEG  =    0.0;   TEEND  =   0.0 temperature during run
   SMASS  =  -3.00    Nose mass-parameter (am)
   estimated Nose-frequenzy (Omega)   =  0.10E-29 period in steps =****** mass=  -0.122E-25a.u.
   SCALEE = 1.0000    scale energy and forces
   NPACO  =    256;   APACO  = 16.0  distance and # of slots for P.C.
   PSTRESS=    0.0 pullay stress

  Mass of Ions in am
   POMASS = 107.87
  Ionic Valenz
   ZVAL   =  11.00
  Atomic Wigner-Seitz radii
  virtual crystal weights
   VCA    =   1.00
   NELECT =     550.0000    total number of electrons
   NUPDOWN=      -1.0000    fix difference up-down

 DOS related values:
   EMIN   =  10.00;   EMAX   =-10.00  energy-range for DOS
   EFERMI =   0.00
   ISMEAR =     0;   SIGMA  =   0.00  broadening in eV -4-tet -1-fermi 0-gaus

 Electronic relaxation 2 (details)
   IALGO  =     38    algorithm
   LDIAG  =      T    sub-space diagonalisation (order eigenvalues)
   LSUBROT=      F    optimize rotation matrix (better conditioning)
   TURBO    =      0    0=normal 1=particle mesh
   IRESTART =      0    0=no restart 2=restart with 2 vectors
   NREBOOT  =      0    no. of reboots
   NMIN     =      0    reboot dimension
   EREF     =   0.00    reference energy to select bands
   IMIX   =      4    mixing-type and parameters
     AMIX     =   0.40;   BMIX     =  1.00
     AMIX_MAG =   1.60;   BMIX_MAG =  1.00
     AMIN     =   0.10
     WC   =   100.;   INIMIX=   1;  MIXPRE=   1;  MAXMIX= -45

 Intra band minimization:
   WEIMIN = 0.0010     energy-eigenvalue tresh-hold
   EBREAK =  0.70E-07  absolut break condition
   DEPER  =   0.30     relativ break condition

   TIME   =   0.40     timestep for ELM

  volume/ion in A,a.u.               =     246.06      1660.49
  Fermi-wavevector in a.u.,A,eV,Ry     =   0.581022  1.097973  4.593147  0.337587
  Thomas-Fermi vector in A             =   1.625363

 Write flags
   LWAVE  =      F    write WAVECAR
   LCHARG =      F    write CHGCAR
   LVTOT  =      F    write LOCPOT, total local potential
   LVHAR  =      F    write LOCPOT, Hartree potential only
   LELF   =      F    write electronic localiz. function (ELF)
   LORBIT =      0    0 simple, 1 ext, 2 COOP (PROOUT)

 Dipole corrections
   LMONO  =      F    monopole corrections only (constant potential shift)
   LDIPOL =      F    correct potential (dipole corrections)
   IDIPOL =      0    1-x, 2-y, 3-z, 4-all directions
   EPSILON=  1.0000000 bulk dielectric constant

 Exchange correlation treatment:
   GGA     =    PE    GGA type
   VOSKOWN=      0    Vosko Wilk Nusair interpolation
   LHFCALC =     F    Hartree Fock is set to
   LHFONE  =     F    Hartree Fock one center treatment
   AEXX    =    0.0000 exact exchange contribution

 Linear response parameters
   LEPSILON=     F    determine dielectric tensor
   LRPA    =     F    only Hartree local field effects (RPA)
   LNABLA  =     F    use nabla operator in PAW spheres
[...]
      16 -82.0164      17 -82.4355      18 -81.8617      19 -81.9964      20 -82.1754
      21 -82.3296      22 -81.9917      23 -82.0559      24 -82.2943      25 -82.0022
      26 -82.3925      27 -81.8451      28 -82.2472      29 -82.0636      30 -81.8543
      31 -82.3477      32 -82.2540      33 -81.8794      34 -81.7078      35 -81.9277
      36 -82.3498      37 -82.3780      38 -82.1687      39 -82.0448      40 -81.9712
      41 -81.7794      42 -81.9890      43 -81.9881      44 -81.9919      45 -81.9778
      46 -81.9449      47 -81.9926      48 -82.0328      49 -82.0397      50 -81.9581

 E-fermi :  -3.1827     XC(G=0):  -1.3967     alpha+bet : -0.9328

[...]

 spin component 2

 k-point     1 :       0.0000    0.0000    0.0000
  band No.  band energies     occupation
      1      -9.7688      1.00000
      2      -9.2696      1.00000
      3      -9.1666      1.00000
      4      -9.1542      1.00000
      5      -9.0871      1.00000
      6      -9.0603      1.00000
      7      -9.0248      1.00000
      8      -9.0170      1.00000
      9      -8.9892      1.00000
     10      -8.9453      1.00000
     11      -8.9264      1.00000
     12      -8.9182      1.00000
     13      -8.8989      1.00000
     14      -8.8792      1.00000
     15      -8.8415      1.00000
     16      -8.8220      1.00000
     17      -8.7898      1.00000
     18      -8.7744      1.00000
     19      -8.7337      1.00000
     20      -8.7002      1.00000
     21      -8.6934      1.00000
     22      -8.6856      1.00000
     23      -8.6685      1.00000
     24      -8.6437      1.00000
     25      -8.6309      1.00000
     26      -8.5994      1.00000
     27      -8.5740      1.00000
     28      -8.5736      1.00000
     29      -8.5648      1.00000
     30      -8.5381      1.00000
     31      -8.5171      1.00000
     32      -8.4891      1.00000
     33      -8.4731      1.00000
     34      -8.4531      1.00000
     35      -8.4464      1.00000
     36      -8.4078      1.00000
     37      -8.3800      1.00000
     38      -8.3738      1.00000
     39      -8.3678      1.00000
     40      -8.3513      1.00000
     41      -8.3402      1.00000
     42      -8.3246      1.00000
     43      -8.3097      1.00000
     44      -8.3013      1.00000
     45      -8.2818      1.00000
     46      -8.2654      1.00000
     47      -8.2578      1.00000
     48      -8.2436      1.00000
     49      -8.2180      1.00000
     50      -8.2137      1.00000
     51      -8.1930      1.00000
     52      -8.1846      1.00000
     53      -8.1734      1.00000
     54      -8.1561      1.00000
     55      -8.1402      1.00000
     56      -8.1348      1.00000
     57      -8.1158      1.00000
     58      -8.1080      1.00000
     59      -8.1019      1.00000
     60      -8.0871      1.00000
[...]
    342       1.2621      0.00000
    343       1.3009      0.00000
    344       1.3578      0.00000
    345       1.3592      0.00000
    346       1.3849      0.00000
    347       1.4186      0.00000
    348       1.4292      0.00000
    349       1.4636      0.00000
    350       1.4781      0.00000
    351       1.4958      0.00000
    352       1.5161      0.00000
    353       1.5234      0.00000
    354       1.5531      0.00000
    355       1.5569      0.00000
    356       1.6094      0.00000

[...]

 soft charge-density along one line, spin component           2
         0         1         2         3         4         5         6         7         8         9
 total charge-density along one line

------------------------ aborting loop because EDIFF is reached ----------------------------------------

  FORCE on cell =-STRESS in cart. coord.  units (eV):
  Direction    XX          YY          ZZ          XY          YZ          ZX
  Alpha Z   172.84038   172.84038   172.84038
  Ewald   57823.91214 52883.65629 36119.32297 -7031.69025  -114.14178 -2002.12965
  Hartree 74078.84690 69341.12390 53270.80674 -6650.64853   -50.37555 -1880.08648
  E(xc)   -2899.55044 -2899.61638 -2900.37707    -0.36583    -0.29045    -0.19340
  Local  ************************-97600.90202 13682.49522   163.26084  3887.51253
  n-local  -517.48172  -520.70936  -521.13387    -1.41414    -1.06988    -2.10172
  augment  4595.29569  4594.66778  4596.63521     0.53917     0.79187    -0.60539
  Kinetic  6844.33929  6841.22631  6846.00069     1.20629     1.09516    -2.57415
  Fock        0.00000     0.00000     0.00000     0.00000     0.00000     0.00000
  Total     -16.75460   -17.60704   -16.80697     0.12193    -0.72979    -0.17826
  in kB      -2.18190    -2.29292    -2.18872     0.01588    -0.09504    -0.02321

 VOLUME and BASIS-vectors are now :
  energy-cutoff  :      249.84
  volume of cell :    12302.94
      direct lattice vectors                 reciprocal lattice vectors
    23.085342606  0.000000000  0.000000000     0.043317529  0.000000000  0.000000000
     0.000000000 23.085342606  0.000000000     0.000000000  0.043317529  0.000000000
     0.000000000  0.000000000 23.085342606     0.000000000  0.000000000  0.043317529

  length of vectors
    23.085342606 23.085342606 23.085342606     0.043317529  0.043317529  0.043317529

 FORCES acting on ions
    electron-ion (+dipol)            ewald-force                    non-local-force                 convergence-correction
   0.109E+04 -.136E+04 -.229E+03   -.109E+04 0.136E+04 0.227E+03   -.187E+01 0.300E+01 0.140E+01   0.319E-02 0.101E-01 -.132E-01
   0.157E+04 -.699E+03 -.479E+03   -.157E+04 0.697E+03 0.478E+03   -.361E+01 0.182E+01 0.105E+01   -.217E-02 0.612E-02 0.714E-02
   -.668E+02 -.175E+04 -.918E+02   0.662E+02 0.174E+04 0.926E+02   0.582E+00 0.517E+01 -.851E+00   0.662E-02 -.210E-01 0.558E-02
   0.747E+03 -.731E+03 -.147E+04   -.746E+03 0.730E+03 0.147E+04   -.132E+01 0.101E+01 0.349E+01   -.189E-02 0.386E-02 0.177E-01
   0.143E+03 -.134E+04 -.117E+04   -.143E+03 0.133E+04 0.117E+04   0.401E+00 0.271E+01 0.326E+01   -.215E-01 -.175E-01 -.896E-02
   0.660E+03 -.137E+04 0.950E+03   -.658E+03 0.137E+04 -.947E+03   -.153E+01 0.280E+01 -.335E+01   0.419E-02 -.510E-02 -.414E-02
   0.138E+04 -.717E+03 0.753E+03   -.138E+04 0.717E+03 -.750E+03   -.187E+01 0.811E+00 -.315E+01   -.224E-03 0.447E-02 -.143E-01
   0.140E+04 0.254E+03 -.113E+04   -.140E+04 -.252E+03 0.113E+04   -.325E+01 -.240E+01 0.294E+01   -.126E-01 -.108E-01 -.997E-03
   0.170E+04 0.377E+02 0.135E+03   -.170E+04 -.379E+02 -.134E+03   -.227E+01 0.187E+00 -.843E+00   0.186E-02 0.380E-02 0.445E-02
   0.319E+03 -.972E+03 -.213E+02   -.318E+03 0.971E+03 0.211E+02   -.519E+00 0.137E+01 0.166E+00   -.189E-01 0.163E-01 0.328E-02
   -.825E+03 -.140E+04 -.696E+03   0.823E+03 0.139E+04 0.694E+03   0.193E+01 0.159E+01 0.229E+01   0.889E-02 -.596E-02 -.859E-02
   0.789E+03 -.237E+03 -.501E+03   -.788E+03 0.237E+03 0.500E+03   -.872E+00 -.441E-01 0.381E+00   0.105E-01 -.173E-01 -.283E-01
   0.323E+03 -.951E+03 0.140E+04   -.323E+03 0.949E+03 -.140E+04   -.558E+00 0.105E+01 -.229E+01   0.255E-02 -.135E-02 0.130E-02
   -.224E+03 -.779E+03 -.127E+04   0.225E+03 0.778E+03 0.127E+04   -.220E+00 0.130E+01 0.567E+00   -.214E-01 0.194E-01 0.290E-03
   -.541E+03 -.153E+04 0.766E+03   0.541E+03 0.153E+04 -.766E+03   0.427E+00 0.287E+01 -.863E+00   -.201E-02 0.462E-03 0.732E-03
   0.481E+03 0.749E+02 -.172E+04   -.481E+03 -.763E+02 0.171E+04   -.158E+00 0.144E+01 0.352E+01   -.344E-02 -.227E-01 0.520E-02
   0.678E+03 -.172E+03 0.580E+03   -.678E+03 0.173E+03 -.580E+03   0.321E-01 -.217E+00 0.212E+00   0.110E-01 0.247E-02 0.187E-02
   -.822E+03 -.972E+03 0.134E+04   0.821E+03 0.970E+03 -.134E+04   0.183E+01 0.167E+01 -.278E+01   -.135E-02 -.136E-01 0.912E-03
   0.957E+03 0.887E+03 -.103E+04   -.956E+03 -.887E+03 0.103E+04   -.133E+01 -.306E+00 0.670E+00   0.216E-01 0.150E-02 0.234E-01
   -.977E+03 -.733E+03 -.847E+03   0.976E+03 0.733E+03 0.846E+03   0.874E+00 -.153E+00 0.798E+00   0.340E-02 0.420E-02 -.227E-01
   -.349E+03 -.575E+03 0.185E+03   0.348E+03 0.574E+03 -.185E+03   0.310E+00 0.936E+00 0.214E+00   0.376E-01 -.238E-01 -.691E-02
   -.131E+04 -.126E+04 0.161E+03   0.131E+04 0.125E+04 -.160E+03   0.312E+01 0.220E+01 -.109E+01   0.746E-03 -.128E-01 0.105E-02
   0.881E+03 -.314E+03 0.159E+04   -.878E+03 0.313E+03 -.158E+04   -.295E+01 0.160E+01 -.411E+01   -.154E-01 0.797E-02 0.607E-02
   0.480E+02 0.143E+03 -.517E+03   -.482E+02 -.143E+03 0.516E+03   0.191E+00 0.245E+00 0.978E+00   -.173E-01 0.807E-02 -.685E-02
   0.146E+04 0.251E+03 0.100E+04   -.146E+04 -.252E+03 -.100E+04   -.288E+01 0.292E+00 -.204E+01   -.143E-02 0.351E-02 0.183E-02
   0.632E+03 0.710E+03 0.186E+03   -.631E+03 -.709E+03 -.185E+03   -.131E+01 -.970E+00 -.113E+01   0.994E-02 0.394E-01 0.211E-01
   0.157E+04 0.859E+03 -.163E+03   -.157E+04 -.857E+03 0.162E+03   -.315E+01 -.239E+01 0.328E+00   -.359E-02 0.137E-01 0.706E-02
   0.107E+03 0.146E+04 -.464E+03   -.107E+03 -.146E+04 0.464E+03   -.429E+00 -.841E+00 0.303E+00   -.344E-02 0.128E-01 0.114E-02
   -.456E+03 -.331E+03 -.166E+04   0.455E+03 0.331E+03 0.165E+04   0.821E+00 0.840E+00 0.267E+01   0.295E-01 -.235E-01 0.143E-01
   -.132E+01 0.169E+03 0.178E+04   0.506E+00 -.171E+03 -.177E+04   0.808E+00 0.112E+01 -.592E+01   -.368E-02 0.379E-03 -.153E-01
   -.151E+03 -.144E+03 0.121E+04   0.152E+03 0.146E+03 -.121E+04   -.455E+00 -.157E+01 -.305E+00   0.253E-01 0.241E-01 0.120E-01
   -.101E+04 -.223E+03 0.472E+03   0.101E+04 0.223E+03 -.473E+03   0.862E+00 -.613E+00 0.791E+00   -.140E-01 0.173E-01 0.466E-03
   0.265E+03 0.868E+03 -.152E+04   -.265E+03 -.866E+03 0.152E+04   -.102E+00 -.154E+01 0.174E+01   -.365E-02 -.877E-02 0.287E-02
   -.158E+04 -.582E+02 0.782E+03   0.157E+04 0.567E+02 -.779E+03   0.439E+01 0.146E+01 -.349E+01   0.222E-02 0.455E-03 -.637E-02
   -.163E+04 -.670E+03 -.211E+03   0.162E+04 0.667E+03 0.210E+03   0.404E+01 0.227E+01 0.932E+00   0.574E-02 0.854E-02 0.229E-02
   -.340E+03 0.669E+03 0.396E+03   0.340E+03 -.670E+03 -.396E+03   -.199E+00 0.353E+00 -.239E+00   0.288E-02 -.371E-02 -.192E-02
   -.660E+03 0.439E+03 -.580E+03   0.659E+03 -.438E+03 0.579E+03   0.944E+00 -.709E+00 0.965E+00   -.646E-02 0.492E-02 0.130E-01
   0.556E+03 0.819E+03 0.136E+04   -.555E+03 -.819E+03 -.135E+04   -.490E+00 -.276E+00 -.771E+00   -.320E-02 -.356E-02 0.244E-02
   0.763E+03 0.163E+04 -.379E+03   -.762E+03 -.162E+04 0.377E+03   -.111E+01 -.507E+01 0.150E+01   -.389E-02 -.147E-01 0.965E-02
   0.103E+04 0.129E+04 0.818E+03   -.102E+04 -.129E+04 -.816E+03   -.296E+01 -.324E+01 -.143E+01   -.873E-02 -.384E-02 -.837E-02
   -.974E+03 -.339E+02 0.153E+04   0.972E+03 0.334E+02 -.153E+04   0.192E+01 0.463E+00 -.372E+01   -.273E-02 0.688E-03 0.356E-02
   -.140E+04 -.229E+03 -.107E+04   0.140E+04 0.228E+03 0.107E+04   0.250E+01 0.153E+01 0.371E+01   0.584E-02 0.130E-02 0.661E-02
   -.691E+03 0.458E+03 -.159E+04   0.690E+03 -.457E+03 0.159E+04   0.165E+01 -.416E+00 0.403E+01   -.196E-02 0.112E-01 0.601E-03
   -.441E+03 0.112E+04 0.133E+04   0.440E+03 -.112E+04 -.132E+04   0.638E+00 -.256E+01 -.224E+01   0.622E-04 0.100E-01 0.184E-02
   -.298E+03 0.153E+04 -.917E+03   0.298E+03 -.152E+04 0.915E+03   -.369E+00 -.433E+01 0.166E+01   0.111E-01 -.976E-02 -.454E-03
   -.107E+02 0.169E+04 0.644E+03   0.978E+01 -.169E+04 -.643E+03   0.914E+00 -.382E+01 -.473E+00   0.203E-01 -.127E-01 0.491E-04
   -.114E+04 0.103E+04 0.871E+03   0.114E+04 -.103E+04 -.870E+03   0.170E+01 -.233E+01 -.139E+01   -.684E-02 0.329E-02 -.795E-02
   -.156E+04 0.555E+03 -.197E+02   0.156E+04 -.555E+03 0.195E+02   0.165E+01 -.152E+00 0.205E+00   -.107E-01 -.554E-02 -.206E-02
   -.780E+03 0.157E+04 0.188E+03   0.780E+03 -.157E+04 -.187E+03   0.778E-01 -.359E+01 -.135E+01   -.166E-01 -.479E-02 -.875E-02
   -.131E+04 0.103E+04 -.664E+03   0.131E+04 -.102E+04 0.662E+03   0.361E+01 -.233E+01 0.167E+01   -.755E-02 -.116E-01 -.743E-03
   -.446E+00 -.198E+01 0.134E+01   -.500E-11 0.682E-12 0.909E-12   0.442E+00 0.226E+01 -.139E+01   0.849E-02 -.139E-01 0.129E-01

 POSITION                                       TOTAL-FORCE (eV/Angst)
      8.24044     16.55008     12.47148        -0.004745      0.012350     -0.016205
      6.84508     14.24808     13.29901         0.011699      0.008259     -0.000376
     11.01276     17.67454     12.01878         0.006313     -0.006647      0.001797
      8.77776     14.26326     15.33408        -0.003864     -0.017508      0.005411
     10.38457     16.32503     14.35998        -0.032549     -0.006579     -0.000112
      9.50471     16.66046      9.84320         0.005790     -0.000777     -0.006288
      7.97809     14.28041     10.64879        -0.002005      0.000403     -0.010174
      7.27240     11.73560     14.66805         0.000065     -0.004257     -0.007522
      6.90122     11.85677     11.77758        -0.006495      0.011733     -0.000470
     10.43862     14.96794     11.83639         0.006647     -0.015299     -0.005254
     12.99934     15.78331     12.89281         0.002462     -0.018428     -0.004019
      9.20953     12.75390     13.04887        -0.008649     -0.004005      0.010267
     10.84145     14.36427      8.88329         0.003472     -0.000249     -0.003881
     11.58621     13.78395     14.27809         0.000141     -0.009379      0.007213
     12.58349     16.14680     10.10758         0.004572     -0.003570     -0.000655
     10.07587     11.65891     15.57993         0.001122     -0.005196      0.003898
      9.94386     12.23980     10.44719         0.007456      0.009480     -0.003832
     13.84191     14.03205      8.64768         0.007244      0.004744     -0.005683
      9.19124      9.62053     13.88130         0.006477     -0.014042      0.007116
     14.27000     13.00838     13.30246         0.002139     -0.004106      0.003240
     12.49956     13.32155     11.14493        -0.009644      0.009728     -0.000310
     14.96852     14.77362     11.16324         0.012804      0.000712     -0.007322
      9.60429     12.08560      7.66910        -0.004802      0.001833      0.006432
     11.53817     11.23361     12.92258         0.007283      0.004351      0.005125
      7.86122     10.59775      9.44454         0.000309      0.004167      0.007524
      9.90113      9.60136     11.17181        -0.002400     -0.004282      0.006424
      7.19356      9.15315     11.87803         0.006989      0.010386      0.012893
     11.71233      8.17590     12.80574        -0.002242      0.003479      0.006371
     13.03404     11.74259     15.48004         0.000909      0.007724     -0.002566
     11.83341     10.73087      6.23783        -0.010073      0.005230      0.004046
     12.22675     11.79026      8.71779        -0.005501     -0.000546     -0.009731
     14.74233     11.89664     10.42738         0.014613     -0.003506     -0.003061
     11.65900      9.31034     15.37165         0.008094     -0.004999      0.007903
     17.24772     11.30761      9.49559        -0.003191     -0.000463     -0.000460
     16.83285     12.74180     12.03548         0.005803     -0.003491     -0.000417
     12.78498      9.84947     10.74833         0.000226      0.009803      0.000150
     13.99179      9.99360     13.37745        -0.003098     -0.002383      0.000908
     10.31202      9.48863      8.29504         0.001601      0.005980      0.004861
      9.18806      7.15859     12.25666        -0.000166      0.007537      0.001389
      8.49470      7.76401      9.55893         0.005299      0.006301      0.009529
     14.76089     11.30265      7.68240         0.002637      0.003254     -0.000053
     16.21582     11.23233     14.42548         0.001686     -0.002090     -0.002596
     14.55219      9.48626     16.12147         0.004978     -0.005345      0.001866
     13.03590      8.96347      8.05922        -0.001327      0.008423     -0.007739
     13.62658      7.34666     14.59170        -0.001954     -0.003833      0.000366
     11.39055      7.45750     10.02038         0.009833      0.006696      0.005477
     15.36647      9.20595      9.49095        -0.001481     -0.000107     -0.003573
     16.51781      9.96238     11.88015        -0.017272      0.001979     -0.003790
     14.46726      7.75035     11.78083        -0.023987     -0.000760     -0.007241
     16.18740      8.28915     14.07563        -0.003217     -0.002707     -0.006877
    total drift:                                0.004348      0.266138     -0.032708

  FREE ENERGIE OF THE ION-ELECTRON SYSTEM (eV)
  free  energy   TOTEN  =      -108.68826024 eV

  energy  without entropy=     -108.68826024  energy(sigma->0) =     -108.68826024

 d Force = 0.1396698E-03[ 0.358E-04, 0.244E-03]  d Energy = 0.2392502E-03-0.996E-04
 d Force = 0.1421204E+01[ 0.142E+01, 0.142E+01]  d Ewald  = 0.1421204E+01-0.406E-06

 reached required accuracy - stopping structural energy minimisation