 vasp.5.3.5 31Mar14 (build Feb 01 2018 12:10:03) gamma-only

 executed on             LinuxIFC date 2019.03.24  06:14:44

 INCAR:
 POTCAR:    PAW_PBE Ag 02Apr2005
 POTCAR:    PAW_PBE Ag 02Apr2005
   VRHFIN =Ag : s1 d10

   TITEL  = PAW_PBE Ag 02Apr2005
   POMASS =  107.868; ZVAL   =   11.000    mass and valenz
   ENMAX  =  249.844; ENMIN  =  187.383 eV

  PAW_PBE Ag 02Apr2005                  :

 POSCAR: Ti47, -314.65339631 <s> Ag </s>
  positions in direct lattice
 exchange correlation table for  LEXCH =        8
   RHO(1)=    0.500       N(1)  =     2000
   RHO(2)=  100.500       N(2)  =     4000

 ion  position               nearest neighbor table
   1  0.716  0.554  0.520-   3 2.72   5 2.74   4 2.75   9 2.79   6 2.81   7 2.83   2 2.89
   2  0.655  0.621  0.430-   3 2.55  11 2.71   4 2.72   9 2.75   8 2.87   1 2.89  10 3.61
   3  0.646  0.650  0.538-   2 2.55  14 2.67   1 2.72   8 2.77   6 2.77   9 2.85
   4  0.678  0.504  0.416-  11 2.65   7 2.67   2 2.72   1 2.75  13 2.76   9 2.80
   5  0.725  0.474  0.609-  12 2.54   7 2.57   6 2.66  16 2.72   1 2.74  15 3.05
   6  0.653  0.565  0.626-   5 2.66  12 2.70  14 2.76   3 2.77   1 2.81  19 2.96  15 3.09   9 3.18

   7  0.695  0.432  0.508-   5 2.57  22 2.63   4 2.67   1 2.83  15 2.93  13 2.95  16 3.07   9 3.36

   8  0.541  0.652  0.476-  10 2.74   3 2.77  14 2.77  17 2.82   9 2.85   2 2.87  21 3.00  29 3.02
                            23 3.11  11 3.34
   9  0.595  0.542  0.500-   2 2.75  11 2.77   1 2.79   4 2.80   8 2.85   3 2.85  13 2.87  14 2.91
                            15 2.93  35 2.94   6 3.18   7 3.36
  10  0.518  0.656  0.358-  20 2.55  17 2.72   8 2.74  21 2.76  11 2.86  28 2.87   2 3.61
  11  0.575  0.547  0.380-   4 2.65  20 2.69   2 2.71   9 2.77  18 2.85  10 2.86  21 2.90  13 2.97
                             8 3.34  30 3.58
  12  0.655  0.469  0.696-  31 2.45   5 2.54   6 2.70  19 2.82  15 2.83  16 2.85
  13  0.584  0.430  0.440-  26 2.72   4 2.76  22 2.79   9 2.87  30 2.93  37 2.95   7 2.95  18 2.97
                            11 2.97  15 3.40
  14  0.548  0.616  0.593-  27 2.43   3 2.67   6 2.76   8 2.77   9 2.91  23 2.91  19 2.92  35 2.92
                            29 3.01
  15  0.595  0.447  0.589-  16 2.66  19 2.78  31 2.81  12 2.83   9 2.93   7 2.93  36 2.94  35 2.96
                            44 3.03   5 3.05  22 3.07   6 3.09  37 3.10  13 3.40
  16  0.673  0.367  0.625-  15 2.66   5 2.72  31 2.84  22 2.84  12 2.85  36 2.89   7 3.07
  17  0.431  0.691  0.433-  33 2.66  10 2.72  24 2.80   8 2.82  21 2.82  28 2.86  29 2.88  23 3.37

  18  0.521  0.447  0.327-  26 2.72  25 2.75  30 2.78  11 2.85  20 2.89  38 2.92  13 2.97
  19  0.542  0.517  0.675-  15 2.78  12 2.82  44 2.84  14 2.92  31 2.94  35 2.94   6 2.96  27 3.10
                            42 3.53
  20  0.497  0.567  0.293-  25 2.48  10 2.55  11 2.69  28 2.72  18 2.89  21 2.96
  21  0.456  0.570  0.417-  28 2.61  30 2.63  10 2.76  17 2.82  11 2.90  20 2.96  39 2.99  29 3.00
                             8 3.00  33 3.02  25 3.04  40 3.15  35 3.56
  22  0.625  0.340  0.512-   7 2.63  34 2.65  36 2.68  13 2.79  16 2.84  15 3.07  37 3.30
  23  0.470  0.717  0.574-  29 2.59  27 2.80  32 2.85  24 2.91  14 2.91   8 3.11  17 3.37
  24  0.352  0.709  0.526-  32 2.61  33 2.70  29 2.71  41 2.72  17 2.80  23 2.91
  25  0.413  0.499  0.311-  39 2.45  20 2.48  38 2.73  18 2.75  28 2.85  21 3.04  30 3.08
  26  0.520  0.343  0.388-  43 2.57  13 2.72  18 2.72  34 2.78  38 2.80  30 3.06  37 3.29
  27  0.469  0.632  0.664-  14 2.43  32 2.52  42 2.70  23 2.80  29 3.06  19 3.10
  28  0.398  0.623  0.332-  21 2.61  20 2.72  25 2.85  17 2.86  10 2.87  33 2.93  39 3.36
  29  0.427  0.618  0.537-  23 2.59  24 2.71  32 2.78  42 2.80  41 2.80  35 2.83  40 2.83  17 2.88
                            33 2.91  21 3.00  14 3.01   8 3.02  27 3.06
  30  0.457  0.455  0.432-  37 2.59  38 2.62  21 2.63  18 2.78  39 2.83  45 2.92  13 2.93  40 2.97
                            26 3.06  25 3.08  35 3.20  43 3.39  11 3.58
  31  0.577  0.394  0.700-  12 2.45  44 2.68  36 2.70  15 2.81  16 2.84  19 2.94
  32  0.370  0.669  0.632-  27 2.52  24 2.61  41 2.62  29 2.78  23 2.85  42 2.88
  33  0.337  0.622  0.446-  17 2.66  24 2.70  41 2.71  29 2.91  28 2.93  40 2.94  39 3.02  21 3.02

  34  0.524  0.283  0.495-  43 2.58  22 2.65  37 2.68  36 2.77  26 2.78  47 2.85
  35  0.484  0.509  0.559-  42 2.72  37 2.78  29 2.83  44 2.83  40 2.90  14 2.92   9 2.94  19 2.94
                            15 2.96  46 3.08  30 3.20  21 3.56
  36  0.554  0.325  0.606-  22 2.68  31 2.70  34 2.77  44 2.82  37 2.85  16 2.89  15 2.94  47 3.05

  37  0.490  0.392  0.521-  47 2.51  30 2.59  34 2.68  44 2.78  35 2.78  36 2.85  13 2.95  43 2.97
                            46 2.98  15 3.10  45 3.17  26 3.29  22 3.30
  38  0.410  0.386  0.352-  30 2.62  43 2.72  25 2.73  26 2.80  18 2.92  45 3.08  39 3.11
  39  0.346  0.499  0.396-  25 2.45  40 2.58  30 2.83  21 2.99  33 3.02  38 3.11  45 3.13  28 3.36

  40  0.367  0.512  0.507-  39 2.58  46 2.59  41 2.76  29 2.83  35 2.90  45 2.90  33 2.94  42 2.97
                            30 2.97  21 3.15
  41  0.307  0.604  0.560-  32 2.62  33 2.71  24 2.72  40 2.76  29 2.80  42 2.90
  42  0.395  0.545  0.631-  27 2.70  35 2.72  29 2.80  32 2.88  41 2.90  46 2.90  40 2.97  44 3.46
                            19 3.53
  43  0.426  0.309  0.443-  45 2.51  26 2.57  34 2.58  38 2.72  47 2.81  37 2.97  30 3.39
  44  0.476  0.416  0.641-  46 2.59  31 2.68  37 2.78  36 2.82  35 2.83  19 2.84  15 3.03  47 3.07
                            42 3.46
  45  0.357  0.388  0.477-  43 2.51  46 2.60  40 2.90  30 2.92  47 3.06  38 3.08  39 3.13  37 3.17

  46  0.379  0.427  0.583-  44 2.59  40 2.59  45 2.60  47 2.79  42 2.90  37 2.98  35 3.08
  47  0.426  0.314  0.567-  37 2.51  46 2.79  43 2.81  34 2.85  36 3.05  45 3.06  44 3.07

  LATTYP: Found a simple cubic cell.
 ALAT       =    22.6781074056

  Lattice vectors:

 A1 = (  22.6781074056,   0.0000000000,   0.0000000000)
 A2 = (   0.0000000000,  22.6781074056,   0.0000000000)
 A3 = (   0.0000000000,   0.0000000000,  22.6781074056)

Analysis of symmetry for initial positions (statically):
 Subroutine PRICEL returns:
 Original cell was already a primitive cell.

 Routine SETGRP: Setting up the symmetry group for a
 simple cubic supercell.

 Subroutine GETGRP returns: Found  1 space group operations
 (whereof  1 operations were pure point group operations)
 out of a pool of 48 trial point group operations.

The static configuration has the point symmetry C_1 .

Analysis of symmetry for dynamics (positions and initial velocities):
 Subroutine PRICEL returns:
 Original cell was already a primitive cell.

 Routine SETGRP: Setting up the symmetry group for a
 simple cubic supercell.

 Subroutine GETGRP returns: Found  1 space group operations
 (whereof  1 operations were pure point group operations)
 out of a pool of 48 trial point group operations.

The dynamic configuration has the point symmetry C_1 .

Analysis of magnetic symmetry:
 Subroutine PRICEL returns:
 Original cell was already a primitive cell.

 Subroutine MAGSYM returns: Found  1 space group operations
 (whereof  1 operations were pure point group operations)
 out of a pool of  1 trial space group operations
 (whereof  1 operations were pure point group operations)
 and found also     1 'primitive' translations

The magnetic configuration has the point symmetry C_1 .

 KPOINTS: Gamma-point only
  k-points in reciprocal lattice
Space group operators:
 irot       det(A)        alpha          n_x          n_y          n_z        tau_x        tau_y        tau_z
    1     1.000000     0.000001     1.000000     0.000000     0.000000     0.000000     0.000000     0.000000

 I would recommend the setting:
   dimension x,y,z NGX =    88 NGY =   88 NGZ =   88
 SYSTEM =  unknown system
 POSCAR =  Ti47, -314.65339631 <s> Ag </s>

 Startparameter for this run:
   NWRITE =      2    write-flag & timer
   PREC   = normal    normal or accurate (medium, high low for compatibility)
   ISTART =      0    job   : 0-new  1-cont  2-samecut
   ICHARG =      2    charge: 1-file 2-atom 10-const
   ISPIN  =      2    spin polarized calculation?
   LNONCOLLINEAR =      F non collinear calculations
   LSORBIT =      F    spin-orbit coupling
   INIWAV =      1    electr: 0-lowe 1-rand  2-diag
   LASPH  =      F    aspherical Exc in radial PAW
   METAGGA=      F    non-selfconsistent MetaGGA calc.

 Electronic Relaxation 1
   ENCUT  =  249.8 eV  18.36 Ry    4.29 a.u.  29.23 29.23 29.23*2*pi/ulx,y,z
   ENINI  =  249.8     initial cutoff
   ENAUG  =  412.5 eV  augmentation charge cutoff
   NELM   =     60;   NELMIN=  2; NELMDL= -5     # of ELM steps
   EDIFF  = 0.1E-03   stopping-criterion for ELM
   LREAL  =      F    real-space projection
   NLSPLINE    = F    spline interpolate recip. space projectors
   LCOMPAT=      F    compatible to vasp.4.4
   GGA_COMPAT  = T    GGA compatible to vasp.4.4-vasp.4.6
   LMAXPAW     = -100 max onsite density
   LMAXMIX     =    2 max onsite mixed and CHGCAR
   VOSKOWN=      0    Vosko Wilk Nusair interpolation
   ROPT   =    0.00000
 Ionic relaxation
   EDIFFG = 0.1E-02   stopping-criterion for IOM
   NSW    =   1000    number of steps for IOM
   NBLOCK =      1;   KBLOCK =   1000    inner block; outer block
   IBRION =      2    ionic relax: 0-MD 1-quasi-New 2-CG
   NFREE  =      1    steps in history (QN), initial steepest desc. (CG)
   ISIF   =      2    stress and relaxation
   IWAVPR =     11    prediction:  0-non 1-charg 2-wave 3-comb
   ISYM   =      2    0-nonsym 1-usesym 2-fastsym
   LCORR  =      T    Harris-Foulkes like correction to forces

   POTIM  = 0.1000    time-step for ionic-motion
   TEIN   =    0.0    initial temperature
   TEBEG  =    0.0;   TEEND  =   0.0 temperature during run
   SMASS  =  -3.00    Nose mass-parameter (am)
   estimated Nose-frequenzy (Omega)   =  0.10E-29 period in steps =****** mass=  -0.118E-25a.u.
   SCALEE = 1.0000    scale energy and forces
   NPACO  =    256;   APACO  = 16.0  distance and # of slots for P.C.
   PSTRESS=    0.0 pullay stress

  Mass of Ions in am
   POMASS = 107.87
  Ionic Valenz
   ZVAL   =  11.00
  Atomic Wigner-Seitz radii
  virtual crystal weights
   VCA    =   1.00
   NELECT =     517.0000    total number of electrons
   NUPDOWN=      -1.0000    fix difference up-down

 DOS related values:
   EMIN   =  10.00;   EMAX   =-10.00  energy-range for DOS
   EFERMI =   0.00
   ISMEAR =     0;   SIGMA  =   0.00  broadening in eV -4-tet -1-fermi 0-gaus

 Electronic relaxation 2 (details)
   IALGO  =     38    algorithm
   LDIAG  =      T    sub-space diagonalisation (order eigenvalues)
   LSUBROT=      F    optimize rotation matrix (better conditioning)
   TURBO    =      0    0=normal 1=particle mesh
   IRESTART =      0    0=no restart 2=restart with 2 vectors
   NREBOOT  =      0    no. of reboots
   NMIN     =      0    reboot dimension
   EREF     =   0.00    reference energy to select bands
   IMIX   =      4    mixing-type and parameters
     AMIX     =   0.40;   BMIX     =  1.00
     AMIX_MAG =   1.60;   BMIX_MAG =  1.00
     AMIN     =   0.10
     WC   =   100.;   INIMIX=   1;  MIXPRE=   1;  MAXMIX= -45

[...]
  PAW double counting   =     50885.39743117   -48805.99366285
  entropy T*S    EENTRO =         0.00000000
  eigenvalues    EBANDS =     -3706.14919910
  atomic energy  EATOM  =     48748.33561406
  free energy    TOTEN  =      -102.27882487 eV

  energy without entropy =     -102.27882487  energy(sigma->0) =     -102.27882487

 average (electrostatic) potential at core
  the test charge radii are     1.1249
  (the norm of the test charge is              1.0000)
       1 -81.9817       2 -81.9121       3 -82.0584       4 -82.0511       5 -81.9702
       6 -82.1388       7 -82.2280       8 -82.1335       9 -82.3186      10 -82.0114
      11 -82.0547      12 -81.9976      13 -82.2710      14 -82.2612      15 -82.3782
      16 -81.9254      17 -82.1141      18 -82.0878      19 -82.2054      20 -81.8233
      21 -82.1898      22 -82.1494      23 -81.9907      24 -82.0848      25 -81.8265
      26 -82.1537      27 -82.0340      28 -81.9153      29 -82.3493      30 -82.3448
      31 -81.9004      32 -81.9682      33 -81.9329      34 -82.0777      35 -82.4205
      36 -82.0509      37 -82.5192      38 -82.0289      39 -81.9991      40 -82.2071
      41 -81.9889      42 -82.1060      43 -82.0640      44 -82.2002      45 -82.0960
      46 -82.1240      47 -81.9625

 E-fermi :  -3.2105     XC(G=0):  -1.3820     alpha+bet : -0.9250

[...]

 spin component 2

 k-point     1 :       0.0000    0.0000    0.0000
  band No.  band energies     occupation
      1      -9.7037      1.00000
      2      -9.1719      1.00000
      3      -9.1526      1.00000
      4      -9.1030      1.00000
      5      -9.0316      1.00000
      6      -9.0120      1.00000
      7      -8.9981      1.00000
      8      -8.9745      1.00000
      9      -8.9294      1.00000
     10      -8.8979      1.00000
     11      -8.8725      1.00000
     12      -8.8462      1.00000
     13      -8.8345      1.00000
     14      -8.8163      1.00000
     15      -8.7500      1.00000
     16      -8.7404      1.00000
     17      -8.7330      1.00000
     18      -8.6968      1.00000
     19      -8.6913      1.00000
     20      -8.6626      1.00000
     21      -8.6346      1.00000
     22      -8.6099      1.00000
     23      -8.6037      1.00000
     24      -8.5862      1.00000
     25      -8.5772      1.00000
     26      -8.5685      1.00000
     27      -8.5519      1.00000
     28      -8.5269      1.00000
     29      -8.5023      1.00000
     30      -8.4976      1.00000
     31      -8.4880      1.00000
     32      -8.4778      1.00000
     33      -8.4552      1.00000
     34      -8.4428      1.00000
     35      -8.4248      1.00000
     36      -8.4057      1.00000
     37      -8.3962      1.00000
     38      -8.3855      1.00000
     39      -8.3720      1.00000
     40      -8.3697      1.00000
     41      -8.3502      1.00000
     42      -8.3191      1.00000
     43      -8.3071      1.00000
     44      -8.2962      1.00000
     45      -8.2894      1.00000
     46      -8.2827      1.00000
     47      -8.2544      1.00000
     48      -8.2406      1.00000
     49      -8.2190      1.00000
     50      -8.2021      1.00000
     51      -8.1889      1.00000
     52      -8.1701      1.00000
     53      -8.1609      1.00000
     54      -8.1516      1.00000
     55      -8.1429      1.00000
     56      -8.1360      1.00000
     57      -8.1278      1.00000
     58      -8.1101      1.00000
     59      -8.0881      1.00000
     60      -8.0823      1.00000
[...]
    322       1.2923      0.00000
    323       1.3226      0.00000
    324       1.3563      0.00000
    325       1.3842      0.00000
    326       1.4127      0.00000
    327       1.4243      0.00000
    328       1.4419      0.00000
    329       1.4623      0.00000
    330       1.4905      0.00000
    331       1.5086      0.00000
    332       1.5202      0.00000
    333       1.5562      0.00000
    334       1.5793      0.00000
    335       1.5860      0.00000
    336       1.6113      0.00000

[...]

 soft charge-density along one line, spin component           2
         0         1         2         3         4         5         6         7         8         9
 total charge-density along one line

------------------------ aborting loop because EDIFF is reached ----------------------------------------

  FORCE on cell =-STRESS in cart. coord.  units (eV):
  Direction    XX          YY          ZZ          XY          YZ          ZX
  Alpha Z   161.09775   161.09775   161.09775
  Ewald   45703.50169 47414.19472 37793.97598 -2979.71453 -3933.55533  8429.00575
  Hartree 61264.02836 62854.30706 53647.05255 -2841.19621 -3706.60455  7869.85110
  E(xc)   -2725.92380 -2725.65757 -2726.03740    -0.07150    -0.26794     0.76650
  Local  ************************-99161.73915  5820.48249  7643.06651-16296.92064
  n-local  -484.82087  -485.66940  -485.66518    -0.01124    -1.74043     1.77574
  augment  4319.34568  4318.03793  4320.41440     0.16608     0.01505    -1.47931
  Kinetic  6433.28721  6429.84189  6434.80137     0.55580    -0.79693    -2.90753
  Fock        0.00000     0.00000     0.00000     0.00000     0.00000     0.00000
  Total     -15.44655   -16.20569   -16.09968     0.21089     0.11638     0.09162
  in kB      -2.12188    -2.22617    -2.21160     0.02897     0.01599     0.01259

 VOLUME and BASIS-vectors are now :
  energy-cutoff  :      249.84
  volume of cell :    11663.27
      direct lattice vectors                 reciprocal lattice vectors
    22.678107406  0.000000000  0.000000000     0.044095390  0.000000000  0.000000000
     0.000000000 22.678107406  0.000000000     0.000000000  0.044095390  0.000000000
     0.000000000  0.000000000 22.678107406     0.000000000  0.000000000  0.044095390

  length of vectors
    22.678107406 22.678107406 22.678107406     0.044095390  0.044095390  0.044095390

 FORCES acting on ions
    electron-ion (+dipol)            ewald-force                    non-local-force                 convergence-correction
   -.165E+04 -.530E+03 0.370E+02   0.164E+04 0.528E+03 -.360E+02   0.329E+01 0.207E+01 -.100E+01   0.123E-03 0.365E-03 0.373E-03
   -.114E+04 -.108E+04 0.835E+03   0.114E+04 0.108E+04 -.834E+03   0.271E+01 0.240E+01 -.716E+00   -.444E-03 -.232E-03 0.845E-03
   -.108E+04 -.139E+04 -.360E+03   0.108E+04 0.139E+04 0.359E+03   0.270E+01 0.446E+01 0.108E+01   -.173E-03 0.523E-03 0.630E-03
   -.145E+04 0.980E+02 0.103E+04   0.144E+04 -.966E+02 -.102E+04   0.318E+01 -.142E+01 -.315E+01   0.380E-03 0.443E-03 0.799E-03
   -.158E+04 0.114E+03 -.613E+03   0.158E+04 -.114E+03 0.612E+03   0.445E+01 -.368E+00 0.113E+01   0.472E-04 0.172E-03 -.756E-03
   -.991E+03 -.736E+03 -.107E+04   0.990E+03 0.735E+03 0.107E+04   0.663E+00 0.983E+00 0.134E+01   0.446E-03 -.229E-03 0.926E-03
   -.145E+04 0.615E+03 0.361E+03   0.145E+04 -.614E+03 -.361E+03   0.220E+01 -.927E+00 -.311E+00   0.646E-03 0.150E-03 -.448E-03
   -.442E+03 -.154E+04 0.203E+03   0.442E+03 0.154E+04 -.203E+03   0.546E+00 0.105E+01 -.577E-01   -.892E-05 -.764E-03 0.728E-03
   -.750E+03 -.382E+03 0.870E+02   0.749E+03 0.382E+03 -.867E+02   0.939E+00 0.669E+00 -.288E+00   0.816E-03 0.122E-02 0.127E-02
   -.296E+03 -.125E+04 0.119E+04   0.295E+03 0.125E+04 -.119E+04   0.115E+01 0.281E+01 -.309E+01   -.668E-03 -.239E-03 0.848E-03
   -.863E+03 -.106E+03 0.138E+04   0.862E+03 0.106E+03 -.138E+04   0.855E+00 -.362E+00 -.573E+00   0.240E-02 0.569E-03 -.103E-02
   -.866E+03 0.186E+02 -.150E+04   0.864E+03 -.188E+02 0.149E+04   0.193E+01 0.236E+00 0.371E+01   0.127E-02 -.865E-03 -.182E-02
   -.726E+03 0.556E+03 0.801E+03   0.726E+03 -.556E+03 -.802E+03   -.298E+00 0.585E-01 0.787E+00   0.403E-04 0.197E-02 -.159E-02
   -.366E+03 -.107E+04 -.909E+03   0.366E+03 0.107E+04 0.909E+03   -.210E+00 0.436E+00 0.328E+00   0.480E-03 -.189E-02 0.634E-03
   -.582E+03 0.375E+03 -.590E+03   0.581E+03 -.375E+03 0.589E+03   0.123E+01 -.368E+00 0.691E+00   -.868E-03 -.899E-04 -.188E-02
   -.123E+04 0.108E+04 -.625E+03   0.123E+04 -.107E+04 0.623E+03   0.256E+01 -.273E+01 0.201E+01   0.104E-02 -.888E-03 0.157E-03
   0.451E+03 -.146E+04 0.658E+03   -.450E+03 0.146E+04 -.657E+03   -.579E+00 0.271E+01 -.654E+00   -.656E-03 -.728E-03 0.623E-03
   -.255E+03 0.543E+03 0.142E+04   0.255E+03 -.543E+03 -.142E+04   -.406E+00 0.264E+00 -.182E+01   -.320E-03 0.160E-02 0.270E-02
   -.650E+02 -.280E+03 -.161E+04   0.652E+02 0.280E+03 0.160E+04   -.188E+00 -.249E+00 0.319E+01   0.633E-03 -.374E-03 0.162E-02
   -.179E+03 -.372E+03 0.165E+04   0.178E+03 0.371E+03 -.164E+04   0.122E+01 0.128E+01 -.460E+01   0.747E-03 -.579E-03 -.820E-03
   0.721E+02 -.420E+03 0.542E+03   -.718E+02 0.420E+03 -.541E+03   -.278E+00 0.520E+00 -.113E+01   0.522E-03 -.124E-02 -.794E-03
   -.105E+04 0.129E+04 0.458E+03   0.105E+04 -.128E+04 -.456E+03   0.228E+01 -.183E+01 -.223E+01   0.653E-03 0.885E-03 -.848E-03
   -.148E+02 -.164E+04 -.514E+03   0.142E+02 0.163E+04 0.512E+03   0.638E+00 0.395E+01 0.190E+01   0.471E-03 -.115E-02 0.127E-03
   0.107E+04 -.136E+04 0.169E+02   -.107E+04 0.136E+04 -.174E+02   -.314E+01 0.380E+01 0.450E+00   0.280E-03 -.204E-03 0.297E-03
   0.688E+03 0.173E+03 0.154E+04   -.686E+03 -.172E+03 -.154E+04   -.198E+01 -.118E+01 -.437E+01   0.104E-02 -.132E-03 -.188E-02
   -.324E+03 0.128E+04 0.114E+04   0.322E+03 -.128E+04 -.114E+04   0.146E+01 -.265E+01 -.258E+01   -.171E-03 0.987E-03 0.171E-02
   0.289E+03 -.660E+03 -.156E+04   -.289E+03 0.659E+03 0.155E+04   -.373E+00 0.881E+00 0.300E+01   0.780E-03 -.136E-02 -.789E-03
   0.742E+03 -.778E+03 0.121E+04   -.741E+03 0.777E+03 -.121E+04   -.368E+00 0.825E+00 -.153E+01   -.206E-03 -.883E-03 -.152E-03
   0.577E+03 -.651E+03 -.342E+03   -.576E+03 0.650E+03 0.342E+03   -.894E+00 0.115E+01 0.278E+00   0.122E-02 -.172E-02 -.120E-02
   0.520E+03 0.379E+03 0.459E+03   -.519E+03 -.378E+03 -.459E+03   -.929E+00 -.567E+00 -.873E+00   -.931E-03 0.241E-02 0.305E-02
   -.189E+03 0.772E+03 -.155E+04   0.190E+03 -.770E+03 0.154E+04   -.524E+00 -.183E+01 0.394E+01   0.218E-03 0.136E-02 -.195E-02
   0.773E+03 -.104E+04 -.109E+04   -.771E+03 0.104E+04 0.109E+04   -.191E+01 0.293E+01 0.280E+01   0.119E-02 -.176E-02 -.961E-03
   0.143E+04 -.693E+03 0.561E+03   -.143E+04 0.692E+03 -.561E+03   -.266E+01 0.479E+00 -.375E+00   -.554E-03 -.422E-03 0.561E-03
   -.175E+03 0.173E+04 0.290E+03   0.175E+03 -.172E+04 -.289E+03   -.215E+00 -.516E+01 -.130E+01   0.896E-03 -.497E-03 0.990E-03
   0.166E+03 -.340E+02 -.446E+03   -.166E+03 0.339E+02 0.445E+03   -.144E+00 0.630E-01 0.809E+00   0.195E-02 0.116E-03 0.775E-03
   -.364E+03 0.149E+04 -.780E+03   0.363E+03 -.148E+04 0.778E+03   0.464E+00 -.203E+01 0.123E+01   0.511E-03 0.156E-02 -.346E-03
   0.421E+02 0.892E+03 -.951E+02   -.421E+02 -.890E+03 0.948E+02   -.934E-01 -.122E+01 0.347E+00   -.722E-04 -.345E-03 0.110E-02
   0.732E+03 0.103E+04 0.124E+04   -.730E+03 -.103E+04 -.123E+04   -.149E+01 -.304E+01 -.203E+01   0.165E-02 0.165E-02 0.324E-03
   0.140E+04 0.202E+02 0.893E+03   -.140E+04 -.196E+02 -.891E+03   -.198E+01 -.571E+00 -.128E+01   -.106E-02 0.386E-03 -.156E-02
   0.149E+04 0.993E+02 -.164E+03   -.149E+04 -.996E+02 0.164E+03   -.153E+00 0.360E+00 -.491E-02   -.180E-02 -.188E-02 -.121E-02
   0.156E+04 -.351E+03 -.654E+03   -.156E+04 0.351E+03 0.653E+03   -.437E+01 0.634E+00 0.130E+01   -.664E-03 0.661E-03 -.363E-03
   0.107E+04 0.135E+03 -.130E+04   -.107E+04 -.135E+03 0.129E+04   -.886E+00 0.144E+00 0.316E+01   -.159E-02 -.188E-03 -.359E-02
   0.853E+03 0.148E+04 0.373E+03   -.851E+03 -.148E+04 -.372E+03   -.115E+01 -.245E+01 -.744E+00   0.170E-03 0.165E-02 -.738E-05
   0.571E+03 0.620E+03 -.141E+04   -.570E+03 -.620E+03 0.140E+04   -.847E+00 -.268E-01 0.247E+01   -.154E-02 0.172E-02 0.454E-03
   0.158E+04 0.821E+03 0.282E+03   -.158E+04 -.819E+03 -.282E+03   -.476E+01 -.244E+01 -.385E+00   0.590E-03 -.106E-02 -.217E-02
   0.128E+04 0.792E+03 -.709E+03   -.128E+04 -.792E+03 0.708E+03   -.159E+01 -.414E+00 0.451E+00   -.971E-03 -.719E-03 -.897E-03
   0.729E+03 0.143E+04 -.793E+03   -.728E+03 -.143E+04 0.791E+03   -.182E+01 -.399E+01 0.209E+01   0.247E-03 0.412E-03 -.602E-03
   -.280E+00 0.731E+00 -.344E+01   -.159E-11 -.682E-12 -.227E-12   0.239E+00 -.655E+00 0.341E+01   0.876E-02 0.381E-03 -.614E-02

 POSITION                                       TOTAL-FORCE (eV/Angst)
     16.58954     12.80780     11.84542         0.000471      0.001155      0.002769
     14.62807     14.43215      9.40060         0.002321      0.002107      0.002271
     14.85424     15.01396     12.28194         0.001475      0.001401      0.004859
     15.61051     11.80224      9.39534         0.004333      0.001033      0.002234
     16.82031     10.83937     13.88367         0.008946      0.002447     -0.004971
     14.80714     12.80752     14.08947         0.001648      0.006198     -0.000311
     15.59446     10.10364     11.54545         0.004817      0.001061      0.000782
     12.46547     15.39438     10.87318        -0.005674     -0.005013     -0.003121
     13.76657     12.56010     11.43321         0.004049     -0.002419      0.001655
     11.99748     14.78480      8.13567        -0.001380     -0.001317      0.004716
     13.35389     12.36395      7.98509         0.003731      0.002470     -0.006615
     14.91337     10.65168     15.86264        -0.001094     -0.010917      0.002559
     13.04153     10.29258     10.04962         0.002216      0.006742      0.001646
     12.35594     14.09464     13.36881         0.002189     -0.006321      0.003766
     13.49580     10.07817     13.39723         0.002877     -0.000875     -0.002138
     15.43811      8.30430     14.02912         0.003517      0.002577     -0.002071
      9.87542     15.45440      9.92508         0.006745     -0.007080      0.000352
     11.33692     10.49301      7.71606        -0.002913      0.019133      0.012938
     12.28721     11.80340     15.20493         0.006044     -0.005782      0.005431
     11.36167     12.84533      6.09743         0.003432     -0.001429      0.001371
     11.20137     12.83590     10.03740         0.004040     -0.002793     -0.007459
     14.04730      7.82825     11.40630         0.001475      0.005474     -0.003594
     10.58274     16.29883     12.77200         0.000068     -0.008062      0.001970
      7.87599     16.03589     11.78805        -0.002350     -0.003977      0.005924
      9.07112     11.23836      6.27209         0.003839     -0.003979     -0.003003
     11.61840      8.04782      9.17277        -0.001049      0.001702      0.004381
     10.30381     13.80020     15.15765         0.001441     -0.007530      0.001350
      9.35562     13.57340      7.86818         0.002103     -0.007027      0.001488
      9.56367     13.78173     12.31200        -0.003590     -0.004998     -0.001238
      9.94152     10.28196     10.21106        -0.003682      0.001687      0.013257
     13.10155      8.67460     15.99969         0.003377      0.017746     -0.007364
      8.38186     15.59675     14.50020         0.000400     -0.012120      0.000419
      7.55493     13.87267     10.06005        -0.008510     -0.009206     -0.001539
     11.84514      6.04330     11.30183         0.000536      0.004140      0.000989
     11.21313     11.48435     12.52059         0.005909      0.000157      0.002415
     12.82626      7.03377     13.82689         0.000848      0.004803     -0.004996
     11.44281      8.69297     11.93894        -0.006263      0.004642     -0.001818
      9.02362      8.87092      7.98541         0.003471     -0.000679     -0.000784
      7.74344     11.41836      8.68408        -0.003573      0.001776     -0.004256
      7.76516     11.54011     11.54908        -0.014205      0.005375     -0.001497
      6.91831     13.62198     13.14500        -0.004249     -0.001485     -0.005630
      8.87514     11.61452     14.13812        -0.005578      0.001210     -0.008212
      9.31452      7.27106     10.60302         0.003125      0.002203      0.000104
     10.79746      9.35546     14.59000        -0.011111      0.006455     -0.001481
      7.28636      9.12705     10.23738        -0.004910     -0.002690     -0.008560
      8.68536      9.16392     12.71377        -0.006176     -0.003060      0.000186
     10.00538      6.79412     13.42549        -0.003134      0.005066      0.000828
    total drift:                               -0.032319      0.076788     -0.035035

  FREE ENERGIE OF THE ION-ELECTRON SYSTEM (eV)
  free  energy   TOTEN  =      -102.27882487 eV

  energy  without entropy=     -102.27882487  energy(sigma->0) =     -102.27882487

 d Force = 0.1136846E-04[ 0.190E-04, 0.372E-05]  d Energy = 0.2316722E-04-0.118E-04
 d Force =-0.1018740E+01[-0.102E+01,-0.102E+01]  d Ewald  =-0.1018740E+01 0.523E-06

 reached required accuracy - stopping structural energy minimisation