 vasp.5.3.5 31Mar14 (build Feb 01 2018 12:10:03) gamma-only

 executed on             LinuxIFC date 2019.03.24  23:44:21

 INCAR:
 POTCAR:    PAW_PBE Ag 02Apr2005
 POTCAR:    PAW_PBE Ag 02Apr2005
   VRHFIN =Ag : s1 d10

   TITEL  = PAW_PBE Ag 02Apr2005
   POMASS =  107.868; ZVAL   =   11.000    mass and valenz
   ENMAX  =  249.844; ENMIN  =  187.383 eV

  PAW_PBE Ag 02Apr2005                  :

 POSCAR: Ti50, -335.98760601 <s> Ag </s>
  positions in direct lattice
 exchange correlation table for  LEXCH =        8
   RHO(1)=    0.500       N(1)  =     2000
   RHO(2)=  100.500       N(2)  =     4000

 ion  position               nearest neighbor table
   1  0.721  0.441  0.579-   4 2.56   6 2.64   5 2.75   3 2.75   2 2.76   8 2.82
   2  0.742  0.555  0.548-   8 2.53   4 2.75   1 2.76  14 2.82  12 2.82  21 2.94   3 3.11
   3  0.678  0.517  0.662-  12 2.47   1 2.75   6 2.75  16 2.81   8 2.90   2 3.11   7 3.19  10 3.20

   4  0.717  0.467  0.471-  14 2.55   1 2.56   5 2.69  13 2.70   2 2.75   8 2.79
   5  0.637  0.391  0.510-   4 2.69   6 2.75   1 2.75  20 2.80  11 2.83  13 2.98  15 3.09   8 3.12

   6  0.617  0.422  0.624-   1 2.64   9 2.74   5 2.75   3 2.75   7 2.81  17 2.83   8 3.02  11 3.04
                            16 3.30  20 3.48
   7  0.560  0.473  0.719-  19 2.55   9 2.79  17 2.79   6 2.81  16 2.82  18 2.92  10 3.14   3 3.19

   8  0.637  0.523  0.542-   2 2.53  16 2.68  20 2.68   4 2.79   1 2.82  14 2.85  21 2.85   3 2.90
                             6 3.02  12 3.08   5 3.12  13 3.23  29 3.30  34 3.40
   9  0.526  0.364  0.675-  18 2.65  17 2.70  22 2.72   6 2.74   7 2.79  11 2.82
  10  0.586  0.607  0.715-  16 2.31  19 2.84  12 2.86  25 3.00  24 3.07   7 3.14   3 3.20
  11  0.528  0.353  0.553-  22 2.67  15 2.80   9 2.82   5 2.83  27 2.84  17 2.91  20 2.94   6 3.04
                            30 3.36
  12  0.674  0.619  0.628-   3 2.47  21 2.57  24 2.72   2 2.82  16 2.84  10 2.86   8 3.08
  13  0.615  0.474  0.412-  20 2.59  23 2.64   4 2.70  14 2.81  29 2.95   5 2.98  37 3.01  33 3.03
                            15 3.14   8 3.23
  14  0.687  0.569  0.439-   4 2.55  21 2.66  29 2.67  13 2.81   2 2.82   8 2.85
  15  0.529  0.369  0.432-  32 2.68  20 2.75  33 2.76  30 2.79  11 2.80  40 2.87   5 3.09  27 3.14
                            13 3.14
  16  0.567  0.557  0.630-  10 2.31  34 2.66   8 2.68  17 2.72   3 2.81  19 2.81   7 2.82  12 2.84
                            24 2.95  25 2.96   6 3.30  26 3.54
  17  0.500  0.460  0.614-  18 2.62   9 2.70  27 2.71  16 2.72  26 2.78   7 2.79  20 2.81   6 2.83
                            22 2.83  11 2.91  19 3.07  28 3.20  34 3.60
  18  0.439  0.433  0.706-  17 2.62   9 2.65  19 2.75  22 2.78  28 2.85   7 2.92  26 3.37
  19  0.477  0.547  0.713-   7 2.55  25 2.65  26 2.67  18 2.75  16 2.81  10 2.84  17 3.07
  20  0.543  0.468  0.499-  27 2.55  13 2.59   8 2.68  15 2.75   5 2.80  17 2.81  37 2.87  11 2.94
                            34 3.21  29 3.32  36 3.36   6 3.48
  21  0.654  0.644  0.521-  12 2.57  14 2.66  35 2.74  24 2.77   8 2.85   2 2.94  29 2.95  34 3.52

[...]

  26  0.414  0.546  0.615-  39 2.50  28 2.57  19 2.67  17 2.78  25 2.87  36 2.91  41 3.04  34 3.05
                            18 3.37  27 3.53  16 3.54
  27  0.440  0.431  0.516-  20 2.55  36 2.62  38 2.63  30 2.70  22 2.71  17 2.71  40 2.81  28 2.84
                            11 2.84  15 3.14  26 3.53
  28  0.361  0.447  0.610-  22 2.48  26 2.57  41 2.71  27 2.84  18 2.85  38 2.97  17 3.20
  29  0.574  0.594  0.434-  37 2.64  14 2.67  35 2.71  23 2.78  34 2.81  43 2.82  21 2.95  13 2.95
                            44 3.08   8 3.30  20 3.32
  30  0.417  0.330  0.460-  32 2.64  27 2.70  38 2.74  15 2.79  40 2.82  42 2.99  11 3.36  22 3.52

[...]

  34  0.509  0.598  0.538-  16 2.66  44 2.71  31 2.74  36 2.78  29 2.81  35 2.83  24 2.92  39 2.92
                            25 2.97  26 3.05  20 3.21   8 3.40  21 3.52  17 3.60
  35  0.554  0.699  0.484-  31 2.47  29 2.71  21 2.74  44 2.80  34 2.83  24 2.84
  36  0.415  0.539  0.489-  41 2.62  27 2.62  49 2.65  39 2.71  44 2.76  34 2.78  37 2.79  26 2.91
                            47 2.95  48 3.24  40 3.26  20 3.36
  37  0.493  0.520  0.397-  40 2.50  29 2.64  23 2.65  43 2.69  46 2.70  36 2.79  20 2.87  48 2.88
                            33 2.98  13 3.01  44 3.26
  38  0.331  0.406  0.491-  27 2.63  47 2.69  30 2.74  41 2.86  28 2.97  42 2.97  40 3.20
  39  0.388  0.633  0.555-  26 2.50  31 2.65  36 2.71  49 2.72  44 2.88  34 2.92  25 3.08  41 3.11

  40  0.428  0.433  0.394-  42 2.49  37 2.50  32 2.68  45 2.76  27 2.81  50 2.81  30 2.82  15 2.87
                            33 2.91  47 2.96  38 3.20  36 3.26  46 3.31  48 3.58
  41  0.312  0.522  0.534-  36 2.62  28 2.71  47 2.75  49 2.76  38 2.86  26 3.04  39 3.11
  42  0.341  0.376  0.365-  40 2.49  45 2.81  50 2.83  32 2.86  38 2.97  30 2.99  47 3.05
  43  0.503  0.621  0.338-  23 2.59  37 2.69  48 2.78  29 2.82  44 2.84  46 2.87
  44  0.451  0.646  0.447-  34 2.71  36 2.76  35 2.80  43 2.84  49 2.87  39 2.88  31 2.88  48 2.95
                            29 3.08  37 3.26
  45  0.423  0.402  0.278-  32 2.51  50 2.52  40 2.76  33 2.77  46 2.79  42 2.81
  46  0.468  0.515  0.282-  37 2.70  50 2.72  33 2.78  45 2.79  23 2.85  48 2.87  43 2.87  40 3.31

  47  0.318  0.496  0.417-  50 2.64  38 2.69  41 2.75  49 2.76  48 2.90  36 2.95  40 2.96  42 3.05

  48  0.390  0.580  0.356-  50 2.56  49 2.71  43 2.78  46 2.87  37 2.88  47 2.90  44 2.95  36 3.24
                            40 3.58
  49  0.331  0.610  0.453-  36 2.65  48 2.71  39 2.72  47 2.76  41 2.76  44 2.87
  50  0.356  0.484  0.309-  45 2.52  48 2.56  47 2.64  46 2.72  40 2.81  42 2.83

  LATTYP: Found a simple cubic cell.
 ALAT       =    22.9445132170

  Lattice vectors:

 A1 = (  22.9445132170,   0.0000000000,   0.0000000000)
 A2 = (   0.0000000000,  22.9445132170,   0.0000000000)
 A3 = (   0.0000000000,   0.0000000000,  22.9445132170)

Analysis of symmetry for initial positions (statically):
 Subroutine PRICEL returns:
 Original cell was already a primitive cell.

 Routine SETGRP: Setting up the symmetry group for a
 simple cubic supercell.

 Subroutine GETGRP returns: Found  1 space group operations
 (whereof  1 operations were pure point group operations)
 out of a pool of 48 trial point group operations.

The static configuration has the point symmetry C_1 .

Analysis of symmetry for dynamics (positions and initial velocities):
 Subroutine PRICEL returns:
 Original cell was already a primitive cell.

 Routine SETGRP: Setting up the symmetry group for a
 simple cubic supercell.

 Subroutine GETGRP returns: Found  1 space group operations
 (whereof  1 operations were pure point group operations)
 out of a pool of 48 trial point group operations.

The dynamic configuration has the point symmetry C_1 .

Analysis of magnetic symmetry:
 Subroutine PRICEL returns:
 Original cell was already a primitive cell.

 Subroutine MAGSYM returns: Found  1 space group operations
 (whereof  1 operations were pure point group operations)
 out of a pool of  1 trial space group operations
 (whereof  1 operations were pure point group operations)
 and found also     1 'primitive' translations

The magnetic configuration has the point symmetry C_1 .

 KPOINTS: Gamma-point only
  k-points in reciprocal lattice
Space group operators:
 irot       det(A)        alpha          n_x          n_y          n_z        tau_x        tau_y        tau_z
    1     1.000000     0.000001     1.000000     0.000000     0.000000     0.000000     0.000000     0.000000

 I would recommend the setting:
   dimension x,y,z NGX =    89 NGY =   89 NGZ =   89
 SYSTEM =  unknown system
 POSCAR =  Ti50, -335.98760601 <s> Ag </s>

 Startparameter for this run:
   NWRITE =      2    write-flag & timer
   PREC   = normal    normal or accurate (medium, high low for compatibility)
   ISTART =      0    job   : 0-new  1-cont  2-samecut
   ICHARG =      2    charge: 1-file 2-atom 10-const
   ISPIN  =      2    spin polarized calculation?
   LNONCOLLINEAR =      F non collinear calculations
   LSORBIT =      F    spin-orbit coupling
   INIWAV =      1    electr: 0-lowe 1-rand  2-diag
   LASPH  =      F    aspherical Exc in radial PAW
   METAGGA=      F    non-selfconsistent MetaGGA calc.

 Electronic Relaxation 1
   ENCUT  =  249.8 eV  18.36 Ry    4.29 a.u.  29.57 29.57 29.57*2*pi/ulx,y,z
   ENINI  =  249.8     initial cutoff
   ENAUG  =  412.5 eV  augmentation charge cutoff
   NELM   =     60;   NELMIN=  2; NELMDL= -5     # of ELM steps
   EDIFF  = 0.1E-03   stopping-criterion for ELM
   LREAL  =      F    real-space projection
   NLSPLINE    = F    spline interpolate recip. space projectors
   LCOMPAT=      F    compatible to vasp.4.4
   GGA_COMPAT  = T    GGA compatible to vasp.4.4-vasp.4.6
   LMAXPAW     = -100 max onsite density
   LMAXMIX     =    2 max onsite mixed and CHGCAR
   VOSKOWN=      0    Vosko Wilk Nusair interpolation
   ROPT   =    0.00000
 Ionic relaxation
   EDIFFG = 0.1E-02   stopping-criterion for IOM
   NSW    =   1000    number of steps for IOM
   NBLOCK =      1;   KBLOCK =   1000    inner block; outer block
   IBRION =      2    ionic relax: 0-MD 1-quasi-New 2-CG
   NFREE  =      1    steps in history (QN), initial steepest desc. (CG)
   ISIF   =      2    stress and relaxation
   IWAVPR =     11    prediction:  0-non 1-charg 2-wave 3-comb
   ISYM   =      2    0-nonsym 1-usesym 2-fastsym
   LCORR  =      T    Harris-Foulkes like correction to forces

   POTIM  = 0.1000    time-step for ionic-motion
   TEIN   =    0.0    initial temperature
   TEBEG  =    0.0;   TEEND  =   0.0 temperature during run
   SMASS  =  -3.00    Nose mass-parameter (am)
   estimated Nose-frequenzy (Omega)   =  0.10E-29 period in steps =****** mass=  -0.120E-25a.u.
   SCALEE = 1.0000    scale energy and forces
   NPACO  =    256;   APACO  = 16.0  distance and # of slots for P.C.
   PSTRESS=    0.0 pullay stress

  Mass of Ions in am
   POMASS = 107.87
  Ionic Valenz
   ZVAL   =  11.00
  Atomic Wigner-Seitz radii
  virtual crystal weights
   VCA    =   1.00
   NELECT =     550.0000    total number of electrons
   NUPDOWN=      -1.0000    fix difference up-down

 DOS related values:
   EMIN   =  10.00;   EMAX   =-10.00  energy-range for DOS
   EFERMI =   0.00
   ISMEAR =     0;   SIGMA  =   0.00  broadening in eV -4-tet -1-fermi 0-gaus

 Electronic relaxation 2 (details)
   IALGO  =     38    algorithm
   LDIAG  =      T    sub-space diagonalisation (order eigenvalues)
   LSUBROT=      F    optimize rotation matrix (better conditioning)
   TURBO    =      0    0=normal 1=particle mesh
   IRESTART =      0    0=no restart 2=restart with 2 vectors
   NREBOOT  =      0    no. of reboots
   NMIN     =      0    reboot dimension
   EREF     =   0.00    reference energy to select bands
   IMIX   =      4    mixing-type and parameters
     AMIX     =   0.40;   BMIX     =  1.00
     AMIX_MAG =   1.60;   BMIX_MAG =  1.00
     AMIN     =   0.10
     WC   =   100.;   INIMIX=   1;  MIXPRE=   1;  MAXMIX= -45

 Intra band minimization:
   WEIMIN = 0.0010     energy-eigenvalue tresh-hold
   EBREAK =  0.70E-07  absolut break condition
   DEPER  =   0.30     relativ break condition

[...]
      16 -82.2098      17 -82.3458      18 -82.0093      19 -81.9454      20 -82.3930
      21 -82.0678      22 -81.9535      23 -82.0457      24 -82.0105      25 -81.8760
      26 -82.0720      27 -82.2478      28 -81.9303      29 -82.0594      30 -81.8430
      31 -81.9624      32 -82.0103      33 -82.1124      34 -82.2276      35 -81.9544
      36 -82.3886      37 -82.4537      38 -81.8535      39 -82.0751      40 -82.3003
      41 -82.1316      42 -81.9434      43 -81.9822      44 -82.0885      45 -81.8858
      46 -81.9772      47 -82.0612      48 -82.1184      49 -82.0483      50 -81.9849

 E-fermi :  -3.2260     XC(G=0):  -1.4134     alpha+bet : -0.9501

[...]

 spin component 2

 k-point     1 :       0.0000    0.0000    0.0000
  band No.  band energies     occupation
      1      -9.6866      1.00000
      2      -9.1762      1.00000
      3      -9.0529      1.00000
      4      -9.0344      1.00000
      5      -9.0293      1.00000
      6      -9.0145      1.00000
      7      -8.9830      1.00000
      8      -8.9349      1.00000
      9      -8.9236      1.00000
     10      -8.9045      1.00000
     11      -8.8635      1.00000
     12      -8.8339      1.00000
     13      -8.8158      1.00000
     14      -8.7864      1.00000
     15      -8.7407      1.00000
     16      -8.7233      1.00000
     17      -8.7083      1.00000
     18      -8.6936      1.00000
     19      -8.6832      1.00000
     20      -8.6573      1.00000
     21      -8.6493      1.00000
     22      -8.6229      1.00000
     23      -8.6006      1.00000
     24      -8.5957      1.00000
     25      -8.5689      1.00000
     26      -8.5645      1.00000
     27      -8.5418      1.00000
     28      -8.5332      1.00000
     29      -8.5168      1.00000
     30      -8.5119      1.00000
     31      -8.4853      1.00000
     32      -8.4784      1.00000
     33      -8.4628      1.00000
     34      -8.4468      1.00000
     35      -8.4196      1.00000
     36      -8.4068      1.00000
     37      -8.3926      1.00000
     38      -8.3758      1.00000
     39      -8.3653      1.00000
     40      -8.3519      1.00000
     41      -8.3365      1.00000
     42      -8.3284      1.00000
     43      -8.3194      1.00000
     44      -8.3014      1.00000
     45      -8.2878      1.00000
     46      -8.2831      1.00000
     47      -8.2684      1.00000
     48      -8.2463      1.00000
     49      -8.2392      1.00000
     50      -8.2135      1.00000
     51      -8.2023      1.00000
     52      -8.1934      1.00000
     53      -8.1849      1.00000
     54      -8.1698      1.00000
     55      -8.1667      1.00000
     56      -8.1538      1.00000
     57      -8.1419      1.00000
     58      -8.1345      1.00000
     59      -8.1186      1.00000
     60      -8.0949      1.00000
[...]
    342       1.3002      0.00000
    343       1.3362      0.00000
    344       1.3957      0.00000
    345       1.4236      0.00000
    346       1.4314      0.00000
    347       1.4405      0.00000
    348       1.4649      0.00000
    349       1.4699      0.00000
    350       1.4963      0.00000
    351       1.5073      0.00000
    352       1.5398      0.00000
    353       1.5722      0.00000
    354       1.5758      0.00000
    355       1.6060      0.00000
    356       1.6180      0.00000

[...]

 soft charge-density along one line, spin component           2
         0         1         2         3         4         5         6         7         8         9
 total charge-density along one line

------------------------ aborting loop because EDIFF is reached ----------------------------------------

  FORCE on cell =-STRESS in cart. coord.  units (eV):
  Direction    XX          YY          ZZ          XY          YZ          ZX
  Alpha Z   176.04255   176.04255   176.04255
  Ewald   54020.93291 34580.11047 57182.06865  7812.50141  1911.79437  8318.57215
  Hartree 70450.47993 51832.55793 73371.28734  7305.00215  1822.12343  7867.67338
  E(xc)   -2899.85450 -2900.76511 -2899.23557     0.78121     0.03847     0.51176
  Local  ************-94629.35921************-15115.16062 -3736.32864-16187.10868
  n-local  -516.79008  -518.75080  -516.52262     1.87300     1.03804     1.22946
  augment  4595.13559  4596.33550  4593.95357    -1.67087     0.31979    -0.42843
  Kinetic  6843.64031  6846.35875  6840.55625    -3.25798     0.96279    -0.98507
  Fock        0.00000     0.00000     0.00000     0.00000     0.00000     0.00000
  Total     -17.21023   -17.46991   -17.65048     0.06830    -0.05175    -0.53543
  in kB      -2.28276    -2.31721    -2.34116     0.00906    -0.00686    -0.07102

 VOLUME and BASIS-vectors are now :
  energy-cutoff  :      249.84
  volume of cell :    12079.15
      direct lattice vectors                 reciprocal lattice vectors
    22.944513217  0.000000000  0.000000000     0.043583404  0.000000000  0.000000000
     0.000000000 22.944513217  0.000000000     0.000000000  0.043583404  0.000000000
     0.000000000  0.000000000 22.944513217     0.000000000  0.000000000  0.043583404

  length of vectors
    22.944513217 22.944513217 22.944513217     0.043583404  0.043583404  0.043583404

 FORCES acting on ions
    electron-ion (+dipol)            ewald-force                    non-local-force                 convergence-correction
   -.152E+04 0.853E+03 -.432E+03   0.151E+04 -.851E+03 0.431E+03   0.395E+01 -.213E+01 0.878E+00   0.315E-03 -.169E-03 -.325E-02
   -.169E+04 -.453E+03 -.258E+03   0.169E+04 0.453E+03 0.258E+03   0.475E+01 0.114E+00 -.473E-01   -.260E-03 0.196E-02 0.433E-03
   -.127E+04 0.109E+03 -.121E+04   0.127E+04 -.110E+03 0.121E+04   0.203E+01 0.753E+00 0.225E+01   0.583E-02 -.456E-03 -.196E-02
   -.152E+04 0.654E+03 0.667E+03   0.152E+04 -.653E+03 -.665E+03   0.439E+01 -.136E+01 -.197E+01   0.190E-02 -.256E-02 -.353E-02
   -.993E+03 0.141E+04 0.265E+03   0.992E+03 -.141E+04 -.265E+03   0.162E+01 -.268E+01 -.124E+00   -.460E-04 -.281E-03 0.334E-03
   -.898E+03 0.110E+04 -.820E+03   0.897E+03 -.110E+04 0.820E+03   0.584E+00 -.928E+00 -.601E+00   0.101E-02 0.454E-02 -.408E-03
   -.537E+03 0.351E+03 -.168E+04   0.537E+03 -.350E+03 0.168E+04   -.195E-01 -.524E+00 0.433E+01   0.283E-02 0.561E-02 -.554E-03
   -.991E+03 0.303E+02 -.352E+02   0.990E+03 -.299E+02 0.355E+02   0.105E+01 -.490E+00 -.302E+00   0.703E-02 0.154E-02 -.354E-02
   -.221E+03 0.133E+04 -.125E+04   0.220E+03 -.133E+04 0.124E+04   0.639E-01 -.347E+01 0.416E+01   0.648E-03 0.697E-02 -.139E-02
   -.324E+03 -.899E+03 -.154E+04   0.323E+03 0.897E+03 0.154E+04   0.144E+01 0.182E+01 0.454E+01   -.605E-02 -.502E-03 -.827E-03
   -.321E+03 0.165E+04 -.256E+03   0.321E+03 -.165E+04 0.256E+03   0.362E-01 -.260E+01 0.898E-01   0.240E-03 0.336E-02 0.193E-02
   -.116E+04 -.100E+04 -.947E+03   0.116E+04 0.100E+04 0.945E+03   0.249E+01 0.185E+01 0.172E+01   -.913E-03 0.110E-02 0.277E-02
   -.105E+04 0.440E+03 0.101E+04   0.105E+04 -.440E+03 -.101E+04   0.263E+00 -.381E+00 -.580E+00   0.216E-03 -.756E-03 -.117E-02
   -.150E+04 -.534E+03 0.833E+03   0.150E+04 0.532E+03 -.831E+03   0.292E+01 0.162E+01 -.277E+01   0.208E-02 -.460E-03 -.660E-03
   -.466E+03 0.132E+04 0.558E+03   0.467E+03 -.132E+04 -.557E+03   -.475E-01 -.916E+00 -.684E+00   0.355E-02 -.124E-02 0.150E-02
   -.371E+03 -.359E+03 -.812E+03   0.371E+03 0.358E+03 0.811E+03   0.387E+00 0.880E+00 0.134E+01   0.857E-02 0.105E-02 -.150E-02
   0.102E+03 0.456E+03 -.934E+03   -.102E+03 -.456E+03 0.933E+03   -.158E+00 -.804E+00 0.913E+00   -.442E-02 0.859E-02 0.382E-03
   0.798E+03 0.525E+03 -.154E+04   -.797E+03 -.524E+03 0.154E+04   -.129E+01 -.168E+01 0.452E+01   0.720E-03 -.453E-02 -.102E-02
   0.460E+03 -.314E+03 -.168E+04   -.459E+03 0.314E+03 0.168E+04   -.112E+01 0.161E+00 0.332E+01   -.372E-02 -.337E-02 0.102E-02
   -.227E+03 0.288E+03 -.640E+01   0.227E+03 -.287E+03 0.740E+01   0.238E+00 -.882E+00 -.998E+00   -.373E-03 -.271E-02 -.890E-03
   -.114E+04 -.124E+04 0.102E+03   0.113E+04 0.124E+04 -.102E+03   0.191E+01 0.117E+01 -.844E-02   0.198E-02 0.157E-02 -.136E-02
   0.633E+03 0.152E+04 -.773E+03   -.631E+03 -.152E+04 0.772E+03   -.130E+01 -.298E+01 0.175E+01   0.395E-04 -.155E-02 -.134E-02
   -.907E+03 -.299E+03 0.157E+04   0.904E+03 0.298E+03 -.157E+04   0.306E+01 0.868E+00 -.412E+01   -.931E-03 -.645E-03 0.133E-02
   -.404E+03 -.158E+04 -.673E+03   0.404E+03 0.158E+04 0.672E+03   0.269E+00 0.296E+01 0.839E+00   0.649E-03 0.885E-03 0.636E-03
   0.610E+03 -.112E+04 -.112E+04   -.609E+03 0.112E+04 0.112E+04   -.116E+01 0.109E+00 0.756E+00   0.410E-03 -.566E-02 -.345E-02
   0.102E+04 -.376E+03 -.103E+04   -.102E+04 0.375E+03 0.102E+04   0.272E+00 0.222E+00 0.564E+00   -.121E-01 -.796E-03 0.591E-02
   0.649E+03 0.651E+03 -.220E+03   -.648E+03 -.651E+03 0.221E+03   -.137E+01 -.646E+00 -.488E+00   0.933E-03 0.652E-02 0.722E-02
   0.145E+04 0.575E+03 -.930E+03   -.145E+04 -.574E+03 0.928E+03   -.272E+01 -.110E+01 0.253E+01   -.363E-02 -.375E-02 -.175E-03
   -.875E+03 -.103E+04 0.976E+03   0.875E+03 0.103E+04 -.976E+03   0.385E+00 0.870E+00 -.672E+00   0.189E-02 -.353E-02 -.175E-02
   0.505E+03 0.168E+04 0.745E+02   -.505E+03 -.168E+04 -.743E+02   -.658E-01 -.306E+01 -.187E+00   0.146E-02 0.340E-02 -.156E-02
   0.503E+03 -.173E+04 -.305E+03   -.501E+03 0.172E+04 0.304E+03   -.131E+01 0.395E+01 0.218E+00   -.131E-02 0.439E-03 0.900E-04
   0.263E+02 0.156E+04 0.871E+03   -.271E+02 -.156E+04 -.870E+03   0.777E+00 -.456E+01 -.139E+01   -.656E-03 0.106E-02 -.256E-02
   -.690E+03 0.801E+03 0.135E+04   0.688E+03 -.799E+03 -.135E+04   0.232E+01 -.179E+01 -.865E+00   -.296E-02 0.471E-03 0.497E-03
   -.994E+02 -.811E+03 -.204E+02   0.100E+03 0.809E+03 0.196E+02   -.101E+01 0.124E+01 0.756E+00   0.226E-02 0.152E-03 -.510E-03
   -.402E+03 -.174E+04 0.477E+03   0.401E+03 0.174E+04 -.475E+03   0.818E+00 0.447E+01 -.230E+01   0.780E-03 -.119E-02 -.173E-02
   0.681E+03 -.385E+03 0.800E+02   -.680E+03 0.384E+03 -.797E+02   -.114E+01 0.796E+00 -.337E+00   0.110E-02 -.242E-02 0.685E-02
   -.142E+03 -.255E+03 0.795E+03   0.142E+03 0.255E+03 -.794E+03   0.296E+00 0.381E+00 -.158E+01   0.294E-02 -.170E-02 -.245E-02
   0.152E+04 0.909E+03 -.796E+02   -.151E+04 -.906E+03 0.792E+02   -.209E+01 -.256E+01 0.338E+00   0.356E-03 -.133E-02 -.125E-02
   0.120E+04 -.117E+04 -.557E+03   -.120E+04 0.117E+04 0.556E+03   -.222E+01 0.246E+01 0.371E+00   -.742E-03 0.395E-03 0.718E-03
   0.482E+03 0.489E+03 0.698E+03   -.481E+03 -.488E+03 -.697E+03   -.631E+00 -.689E+00 -.778E+00   -.370E-02 -.250E-02 0.677E-02
   0.168E+04 -.269E+03 -.446E+03   -.168E+04 0.268E+03 0.445E+03   -.311E+01 0.154E+01 0.806E+00   0.130E-02 -.326E-02 -.974E-03
   0.120E+04 0.109E+04 0.737E+03   -.120E+04 -.109E+04 -.735E+03   -.241E+01 -.304E+01 -.230E+01   -.673E-03 0.578E-03 -.104E-02
   -.152E+02 -.128E+04 0.133E+04   0.140E+02 0.128E+04 -.133E+04   0.119E+01 0.379E+01 -.267E+01   0.137E-02 -.485E-03 -.420E-03
   0.586E+03 -.150E+04 0.584E+03   -.585E+03 0.150E+04 -.584E+03   -.128E+01 0.119E+01 -.597E+00   0.400E-03 -.693E-03 0.804E-04
   0.260E+03 0.769E+03 0.154E+04   -.259E+03 -.766E+03 -.153E+04   -.105E+01 -.239E+01 -.373E+01   -.932E-03 0.147E-02 -.187E-02
   0.140E+03 -.305E+03 0.170E+04   -.140E+03 0.304E+03 -.170E+04   0.148E+00 0.959E+00 -.253E+01   -.281E-03 -.123E-03 0.124E-02
   0.162E+04 -.187E+02 0.539E+03   -.162E+04 0.189E+02 -.539E+03   -.163E+01 -.226E+00 -.237E+00   -.273E-02 0.692E-03 -.832E-03
   0.941E+03 -.863E+03 0.112E+04   -.940E+03 0.862E+03 -.112E+04   -.111E+01 0.866E+00 -.425E+00   0.288E-02 -.122E-02 0.315E-02
   0.150E+04 -.106E+04 0.329E+03   -.149E+04 0.106E+04 -.329E+03   -.330E+01 0.424E+01 -.585E-01   0.116E-02 -.128E-02 0.218E-02
   0.117E+04 0.268E+02 0.134E+04   -.116E+04 -.275E+02 -.134E+04   -.344E+01 0.744E+00 -.327E+01   0.177E-02 -.917E-03 0.977E-03
   -.280E+01 0.191E+01 -.306E+00   -.387E-11 -.183E-11 0.432E-11   0.266E+01 -.185E+01 0.388E+00   0.122E-01 0.229E-02 0.208E-02

 POSITION                                       TOTAL-FORCE (eV/Angst)
     16.78409      9.93185     13.21251         0.004415     -0.002928     -0.007298
     17.17103     12.97410     12.93838         0.012354      0.009984      0.002965
     15.72666     11.68884     15.09330         0.011489      0.001370      0.000080
     16.78770     10.33367     10.48119        -0.002098     -0.006064     -0.010390
     14.52299      8.99750     11.46799         0.006174      0.003857      0.000626
     14.17110      9.51024     14.21806        -0.004737      0.009644     -0.001111
     13.40921     10.92964     16.50643         0.005816      0.016293     -0.003262
     14.86176     11.76283     12.17624        -0.016798     -0.009108     -0.010987
     12.14257      8.16009     15.70638         0.000147      0.014591      0.004605
     13.11692     14.27807     16.38376        -0.017985     -0.000703      0.004498
     12.05516      8.18041     12.75632        -0.000749      0.005407      0.007730
     15.46576     14.41592     14.73177        -0.000358      0.000699      0.004244
     14.25468     11.03318      9.41424         0.009515     -0.006908      0.004850
     16.32364     13.02123     10.09986         0.007887     -0.003749     -0.002877
     12.06353      8.87241     10.08044        -0.004127     -0.007041     -0.017411
     13.13017     12.68736     14.20316         0.016026     -0.005660     -0.011461
     11.49490     10.44014     14.41764         0.007612      0.021939     -0.005369
      9.47318      9.93495     16.13587        -0.002658     -0.013128      0.001402
     11.00078     12.38029     16.48972        -0.007564     -0.005871      0.003315
     12.21656     11.03971     11.80894         0.019827      0.012961      0.001556
     14.99228     14.66790     11.95011        -0.000325      0.006351      0.000642
      9.65587      7.85606     14.07080        -0.000647      0.000791     -0.006428
     13.45478     12.46929      7.06948         0.005486     -0.001769     -0.009589
     13.16130     15.68619     13.81256        -0.005757      0.000620     -0.004372
     10.76209     14.55888     14.77971        -0.001725     -0.008396     -0.009091
      9.26673     12.10758     14.21339        -0.023019      0.002339      0.021448
      9.65993      9.93358     12.23569        -0.011296     -0.019514      0.012062
      7.52489      9.73316     14.11250        -0.006230     -0.009964      0.004051
     13.84764     14.07353      9.37124         0.007007     -0.000773      0.002045
      9.51367      7.51220     10.96719         0.002902      0.019343      0.000011
     10.72280     16.35963     12.63641         0.004313     -0.002897      0.000016
     10.39490      7.58133      8.26121         0.003802      0.006281     -0.004547
     12.28282      9.89798      7.48233        -0.006786     -0.007473      0.003078
     12.20178     13.80509     11.78842         0.005018     -0.008178      0.002465
     12.86443     16.27868     10.83391         0.000254     -0.000788     -0.006008
      9.66888     12.43029     11.10730         0.014508      0.014313     -0.006463
     11.71376     12.24913      9.25489        -0.023312     -0.011672      0.015750
      7.08939      9.09577     11.41265         0.003697     -0.002028     -0.002732
      8.72529     14.45253     12.78812        -0.002997     -0.001050      0.003664
      9.79372     10.24024      9.06493         0.008057      0.002599      0.019527
      7.20603     11.84209     12.32065        -0.008418     -0.003163     -0.005318
      7.71508      8.50406      8.72625        -0.006987     -0.002879     -0.002908
     11.46505     14.50268      7.68616         0.000941      0.001704     -0.000641
     10.22697     15.07350     10.15112         0.000265     -0.004468      0.000930
      9.94517      9.24789      6.14487         0.001262     -0.001087     -0.007673
     10.67226     11.96876      6.44997        -0.002632      0.000287     -0.000605
      7.14052     11.25356      9.58354        -0.006165      0.003411     -0.000636
      8.99488     13.18450      8.30910         0.001988     -0.005060      0.009808
      7.35224     13.95356     10.39010         0.002315     -0.003985      0.002780
      7.96461     10.93021      6.95823         0.000295      0.001517      0.003028
    total drift:                               -0.125174      0.066044      0.083686

  FREE ENERGIE OF THE ION-ELECTRON SYSTEM (eV)
  free  energy   TOTEN  =      -109.20357965 eV

  energy  without entropy=     -109.20357965  energy(sigma->0) =     -109.20357965

 d Force = 0.2692104E-04[ 0.348E-04, 0.190E-04]  d Energy = 0.4357618E-04-0.167E-04
 d Force = 0.1175449E+00[ 0.118E+00, 0.117E+00]  d Ewald  = 0.1175444E+00 0.525E-06

 reached required accuracy - stopping structural energy minimisation