 vasp.5.3.5 31Mar14 (build Feb 01 2018 12:10:03) gamma-only

 executed on             LinuxIFC date 2019.03.24  04:31:26

 INCAR:
 POTCAR:    PAW_PBE Ag 02Apr2005
 POTCAR:    PAW_PBE Ag 02Apr2005
   VRHFIN =Ag : s1 d10

   TITEL  = PAW_PBE Ag 02Apr2005
   POMASS =  107.868; ZVAL   =   11.000    mass and valenz
   ENMAX  =  249.844; ENMIN  =  187.383 eV

  PAW_PBE Ag 02Apr2005                  :

 POSCAR: Ti46, -307.6133774 <s> Ag </s>
  positions in direct lattice
 exchange correlation table for  LEXCH =        8
   RHO(1)=    0.500       N(1)  =     2000
   RHO(2)=  100.500       N(2)  =     4000

 ion  position               nearest neighbor table
   1  0.567  0.275  0.505-   6 2.55   3 2.66  17 2.70  46 2.73  30 2.78  36 2.83
   2  0.612  0.671  0.493-  37 2.58  22 2.58  43 2.62  33 2.92  18 3.11  14 3.19  34 3.41  40 3.44

   3  0.661  0.349  0.499-  35 2.52   1 2.66  44 2.73  17 2.87  23 2.94  46 2.95  45 3.01  36 3.05

[...]

   6  0.477  0.290  0.435-   1 2.55  27 2.65  17 2.71  36 2.72  31 2.75  30 2.79
   7  0.513  0.492  0.417-  39 2.52  43 2.56  17 2.64  13 2.73  21 2.75  40 2.83  31 2.83  19 2.87
                            34 2.88  45 3.44  12 3.47
   8  0.377  0.654  0.514-   4 2.60  24 2.73  32 2.76  19 2.79   5 2.91  18 2.92  25 3.34  37 3.60

   9  0.346  0.587  0.326-  10 2.65  19 2.68   5 2.71   4 2.72  12 2.73  13 2.79
  10  0.444  0.657  0.323-  40 2.60   9 2.65   4 2.66  19 2.67  13 2.83  18 2.91
  11  0.491  0.537  0.699-  20 2.56  38 2.73  41 2.74  24 2.91  25 2.94  29 2.94  42 3.02  14 3.11
                            28 3.13
  12  0.363  0.476  0.376-  16 2.70   9 2.73  13 2.80  21 2.91   5 2.93  27 2.94  19 2.97  31 3.13
                             7 3.47
  13  0.458  0.530  0.313-   7 2.73  19 2.76   9 2.79  12 2.80  40 2.80  10 2.83  39 3.28  31 3.32

[...]

  28  0.492  0.458  0.581-  42 2.42  21 2.66  45 2.83  15 2.92  20 2.93  30 2.95  24 2.97  46 2.98
                            29 3.01  17 3.11  11 3.13  14 3.19  43 3.59
  29  0.594  0.457  0.670-  41 2.70  44 2.71  46 2.79  42 2.89  26 2.89  11 2.94  45 3.01  28 3.01
                            14 3.12
  30  0.465  0.330  0.554-  46 2.68  27 2.75   1 2.78   6 2.79  17 2.85  15 2.91  28 2.95  42 3.11

[...]

  33  0.644  0.658  0.620-  14 2.46  41 2.84  22 2.85  38 2.88   2 2.92  37 2.97  26 3.05
  34  0.636  0.535  0.425-  35 2.62  22 2.67  43 2.87   7 2.88  45 2.89  40 2.93  23 3.00  39 3.18
                             2 3.41
  35  0.659  0.419  0.409-   3 2.52  39 2.52  34 2.62  23 2.76  36 2.77  17 2.99  45 3.19
  36  0.586  0.320  0.387-  17 2.56   6 2.72  35 2.77   1 2.83  39 2.89  31 3.00   3 3.05
  37  0.525  0.694  0.568-  38 2.54   2 2.58  24 2.86  18 2.91  14 2.93  33 2.97  43 3.04   8 3.60

  38  0.526  0.652  0.675-  37 2.54  41 2.66  11 2.73  14 2.74  33 2.88  24 2.97  25 3.01
  39  0.574  0.440  0.337-   7 2.52  35 2.52  31 2.59  36 2.89  34 3.18  17 3.22  13 3.28
  40  0.540  0.608  0.370-  10 2.60  43 2.63  18 2.80  13 2.80  19 2.82   7 2.83  34 2.93   2 3.44

  41  0.610  0.572  0.708-  14 2.64  38 2.66  29 2.70  11 2.74  26 2.81  33 2.84
  42  0.475  0.403  0.674-  28 2.42  20 2.82  29 2.89  46 2.95  11 3.02  30 3.11  15 3.21
  43  0.532  0.584  0.486-   7 2.56  14 2.58   2 2.62  40 2.63  24 2.75  19 2.81  18 2.81  34 2.87
                            37 3.04  45 3.25  21 3.25  22 3.51  28 3.59
  44  0.685  0.405  0.607-  45 2.69  46 2.69  29 2.71   3 2.73  23 2.75  26 2.77
  45  0.611  0.470  0.536-  23 2.53  44 2.69  14 2.73  17 2.80  28 2.83  34 2.89  26 2.90   3 3.01
                            29 3.01  46 3.05  22 3.08  35 3.19  43 3.25   7 3.44
  46  0.575  0.354  0.600-  30 2.68  44 2.69   1 2.73  29 2.79  42 2.95   3 2.95  28 2.98  45 3.05
                            17 3.10

  LATTYP: Found a simple cubic cell.
 ALAT       =    22.1115891728

  Lattice vectors:

 A1 = (  22.1115891728,   0.0000000000,   0.0000000000)
 A2 = (   0.0000000000,  22.1115891728,   0.0000000000)
 A3 = (   0.0000000000,   0.0000000000,  22.1115891728)

Analysis of symmetry for initial positions (statically):
 Subroutine PRICEL returns:
 Original cell was already a primitive cell.

 Routine SETGRP: Setting up the symmetry group for a
 simple cubic supercell.

 Subroutine GETGRP returns: Found  1 space group operations
 (whereof  1 operations were pure point group operations)
 out of a pool of 48 trial point group operations.

The static configuration has the point symmetry C_1 .

Analysis of symmetry for dynamics (positions and initial velocities):
 Subroutine PRICEL returns:
 Original cell was already a primitive cell.

 Routine SETGRP: Setting up the symmetry group for a
 simple cubic supercell.

 Subroutine GETGRP returns: Found  1 space group operations
 (whereof  1 operations were pure point group operations)
 out of a pool of 48 trial point group operations.

The dynamic configuration has the point symmetry C_1 .

Analysis of magnetic symmetry:
 Subroutine PRICEL returns:
 Original cell was already a primitive cell.

 Subroutine MAGSYM returns: Found  1 space group operations
 (whereof  1 operations were pure point group operations)
 out of a pool of  1 trial space group operations
 (whereof  1 operations were pure point group operations)
 and found also     1 'primitive' translations

The magnetic configuration has the point symmetry C_1 .

 KPOINTS: Gamma-point only
  k-points in reciprocal lattice
Space group operators:
 irot       det(A)        alpha          n_x          n_y          n_z        tau_x        tau_y        tau_z
    1     1.000000     0.000000     1.000000     0.000000     0.000000     0.000000     0.000000     0.000000

 I would recommend the setting:
   dimension x,y,z NGX =    85 NGY =   85 NGZ =   85
 SYSTEM =  unknown system
 POSCAR =  Ti46, -307.6133774 <s> Ag </s>

 Startparameter for this run:
   NWRITE =      2    write-flag & timer
   PREC   = normal    normal or accurate (medium, high low for compatibility)
   ISTART =      0    job   : 0-new  1-cont  2-samecut
   ICHARG =      2    charge: 1-file 2-atom 10-const
   ISPIN  =      2    spin polarized calculation?
   LNONCOLLINEAR =      F non collinear calculations
   LSORBIT =      F    spin-orbit coupling
   INIWAV =      1    electr: 0-lowe 1-rand  2-diag
   LASPH  =      F    aspherical Exc in radial PAW
   METAGGA=      F    non-selfconsistent MetaGGA calc.

 Electronic Relaxation 1
   ENCUT  =  249.8 eV  18.36 Ry    4.29 a.u.  28.50 28.50 28.50*2*pi/ulx,y,z
   ENINI  =  249.8     initial cutoff
   ENAUG  =  412.5 eV  augmentation charge cutoff
   NELM   =     60;   NELMIN=  2; NELMDL= -5     # of ELM steps
   EDIFF  = 0.1E-03   stopping-criterion for ELM
   LREAL  =      F    real-space projection
   NLSPLINE    = F    spline interpolate recip. space projectors
   LCOMPAT=      F    compatible to vasp.4.4
   GGA_COMPAT  = T    GGA compatible to vasp.4.4-vasp.4.6
   LMAXPAW     = -100 max onsite density
   LMAXMIX     =    2 max onsite mixed and CHGCAR
   VOSKOWN=      0    Vosko Wilk Nusair interpolation
   ROPT   =    0.00000
 Ionic relaxation
   EDIFFG = 0.1E-02   stopping-criterion for IOM
   NSW    =   1000    number of steps for IOM
   NBLOCK =      1;   KBLOCK =   1000    inner block; outer block
   IBRION =      2    ionic relax: 0-MD 1-quasi-New 2-CG
   NFREE  =      1    steps in history (QN), initial steepest desc. (CG)
   ISIF   =      2    stress and relaxation
   IWAVPR =     11    prediction:  0-non 1-charg 2-wave 3-comb
   ISYM   =      2    0-nonsym 1-usesym 2-fastsym
   LCORR  =      T    Harris-Foulkes like correction to forces

   POTIM  = 0.1000    time-step for ionic-motion
   TEIN   =    0.0    initial temperature
   TEBEG  =    0.0;   TEEND  =   0.0 temperature during run
   SMASS  =  -3.00    Nose mass-parameter (am)
   estimated Nose-frequenzy (Omega)   =  0.10E-29 period in steps =****** mass=  -0.112E-25a.u.
   SCALEE = 1.0000    scale energy and forces
   NPACO  =    256;   APACO  = 16.0  distance and # of slots for P.C.
   PSTRESS=    0.0 pullay stress

  Mass of Ions in am
   POMASS = 107.87
  Ionic Valenz
   ZVAL   =  11.00
  Atomic Wigner-Seitz radii
  virtual crystal weights
   VCA    =   1.00
   NELECT =     506.0000    total number of electrons
   NUPDOWN=      -1.0000    fix difference up-down

 DOS related values:
   EMIN   =  10.00;   EMAX   =-10.00  energy-range for DOS
   EFERMI =   0.00
   ISMEAR =     0;   SIGMA  =   0.00  broadening in eV -4-tet -1-fermi 0-gaus

 Electronic relaxation 2 (details)
   IALGO  =     38    algorithm
   LDIAG  =      T    sub-space diagonalisation (order eigenvalues)
   LSUBROT=      F    optimize rotation matrix (better conditioning)
   TURBO    =      0    0=normal 1=particle mesh
   IRESTART =      0    0=no restart 2=restart with 2 vectors
   NREBOOT  =      0    no. of reboots
   NMIN     =      0    reboot dimension
   EREF     =   0.00    reference energy to select bands
   IMIX   =      4    mixing-type and parameters
     AMIX     =   0.40;   BMIX     =  1.00
     AMIX_MAG =   1.60;   BMIX_MAG =  1.00
     AMIN     =   0.10
     WC   =   100.;   INIMIX=   1;  MIXPRE=   1;  MAXMIX= -45

 Intra band minimization:
   WEIMIN = 0.0010     energy-eigenvalue tresh-hold
   EBREAK =  0.76E-07  absolut break condition
   DEPER  =   0.30     relativ break condition

   TIME   =   0.40     timestep for ELM

  volume/ion in A,a.u.               =     235.02      1585.98
  Fermi-wavevector in a.u.,A,eV,Ry     =   0.589981  1.114903  4.735891  0.348078
  Thomas-Fermi vector in A             =   1.637846

 Write flags
   LWAVE  =      F    write WAVECAR
   LCHARG =      F    write CHGCAR
   LVTOT  =      F    write LOCPOT, total local potential
   LVHAR  =      F    write LOCPOT, Hartree potential only
   LELF   =      F    write electronic localiz. function (ELF)
   LORBIT =      0    0 simple, 1 ext, 2 COOP (PROOUT)

 Dipole corrections
   LMONO  =      F    monopole corrections only (constant potential shift)
   LDIPOL =      F    correct potential (dipole corrections)
   IDIPOL =      0    1-x, 2-y, 3-z, 4-all directions
   EPSILON=  1.0000000 bulk dielectric constant

 Exchange correlation treatment:
   GGA     =    PE    GGA type
   VOSKOWN=      0    Vosko Wilk Nusair interpolation
   LHFCALC =     F    Hartree Fock is set to
   LHFONE  =     F    Hartree Fock one center treatment
   AEXX    =    0.0000 exact exchange contribution

 Linear response parameters
   LEPSILON=     F    determine dielectric tensor
   LRPA    =     F    only Hartree local field effects (RPA)
   LNABLA  =     F    use nabla operator in PAW spheres
   LVEL    =     F    velocity operator in full k-point grid
   LINTERFAST=   F  fast interpolation
   KINTER  =     0    interpolate to denser k-point grid
   CSHIFT  =0.1000    complex shift for real part using Kramers Kronig
   OMEGAMAX=  -1.0    maximum frequency
   DEG_THRESHOLD= 0.2000000E-02 threshold for treating states as degnerate
   RTIME   =    0.100 relaxation time in fs

 Orbital magnetization related:
   ORBITALMAG=     F  switch on orbital magnetization
   LCHIMAG   =     F  perturbation theory with respect to B field
   DQ        =  0.001000  dq finite difference perturbation B field

[...]
  alpha Z        PSCENC =       166.48303101
  Ewald energy   TEWEN  =    124865.42591963
  -Hartree energ DENC   =   -170769.85002890
  -exchange      EXHF   =         0.00000000
  -V(xc)+E(xc)   XCENC  =      -519.89069796
  PAW double counting   =     49801.84448539   -47765.74168689
  entropy T*S    EENTRO =         0.00000000
  eigenvalues    EBANDS =     -3589.15119952
  atomic energy  EATOM  =     47711.13698397
  free energy    TOTEN  =       -99.74319327 eV

  energy without entropy =      -99.74319327  energy(sigma->0) =      -99.74319327

 average (electrostatic) potential at core
  the test charge radii are     1.1249
  (the norm of the test charge is              1.0000)
       1 -81.7922       2 -82.0886       3 -81.8675       4 -81.7171       5 -81.9968
       6 -81.9000       7 -82.3064       8 -81.9708       9 -81.7801      10 -81.8263
      11 -82.0914      12 -82.0179      13 -81.9627      14 -82.2511      15 -82.0276
      16 -81.9312      17 -82.2140      18 -81.9480      19 -82.4479      20 -81.9409
      21 -82.4564      22 -81.9479      23 -81.8403      24 -82.2703      25 -81.7739
      26 -81.8834      27 -82.1271      28 -82.2475      29 -82.1109      30 -82.0146
      31 -81.9339      32 -81.8103      33 -81.8787      34 -82.1689      35 -82.0224
      36 -81.7477      37 -81.9949      38 -82.0845      39 -81.9097      40 -82.1376
      41 -81.9101      42 -82.0108      43 -82.4637      44 -81.7456      45 -82.3638
      46 -82.0426

 E-fermi :  -3.1691     XC(G=0):  -1.4545     alpha+bet : -0.9767

[...]

 spin component 2

 k-point     1 :       0.0000    0.0000    0.0000
  band No.  band energies     occupation
      1      -9.7944      1.00000
      2      -9.2444      1.00000
      3      -9.1813      1.00000
      4      -9.1601      1.00000
      5      -9.1030      1.00000
      6      -9.0587      1.00000
      7      -9.0504      1.00000
      8      -8.9799      1.00000
      9      -8.9618      1.00000
     10      -8.9108      1.00000
     11      -8.8786      1.00000
     12      -8.8497      1.00000
     13      -8.8288      1.00000
     14      -8.7916      1.00000
     15      -8.7633      1.00000
     16      -8.7460      1.00000
     17      -8.7338      1.00000
     18      -8.6908      1.00000
     19      -8.6878      1.00000
     20      -8.6566      1.00000
     21      -8.6171      1.00000
     22      -8.5940      1.00000
     23      -8.5644      1.00000
     24      -8.5403      1.00000
     25      -8.5178      1.00000
     26      -8.4926      1.00000
     27      -8.4778      1.00000
     28      -8.4674      1.00000
     29      -8.4438      1.00000
     30      -8.4304      1.00000
     31      -8.4146      1.00000
     32      -8.4096      1.00000
     33      -8.3954      1.00000
     34      -8.3763      1.00000
     35      -8.3662      1.00000
     36      -8.3509      1.00000
     37      -8.3397      1.00000
     38      -8.3331      1.00000
     39      -8.2967      1.00000
     40      -8.2814      1.00000
     41      -8.2769      1.00000
     42      -8.2673      1.00000
     43      -8.2483      1.00000
     44      -8.2343      1.00000
     45      -8.2217      1.00000
     46      -8.1999      1.00000
     47      -8.1702      1.00000
     48      -8.1564      1.00000
     49      -8.1537      1.00000
     50      -8.1284      1.00000
     51      -8.1163      1.00000
     52      -8.1060      1.00000
     53      -8.0964      1.00000
     54      -8.0841      1.00000
     55      -8.0534      1.00000
     56      -8.0451      1.00000
     57      -8.0342      1.00000
     58      -8.0152      1.00000
     59      -8.0004      1.00000
     60      -7.9824      1.00000
[...]
    314       1.3006      0.00000
    315       1.3099      0.00000
    316       1.3592      0.00000
    317       1.3773      0.00000
    318       1.4382      0.00000
    319       1.4784      0.00000
    320       1.4859      0.00000
    321       1.4963      0.00000
    322       1.5232      0.00000
    323       1.5606      0.00000
    324       1.5867      0.00000
    325       1.6046      0.00000
    326       1.6163      0.00000
    327       1.6657      0.00000
    328       1.6697      0.00000

[...]

 soft charge-density along one line, spin component           2
         0         1         2         3         4         5         6         7         8         9
 total charge-density along one line

------------------------ aborting loop because EDIFF is reached ----------------------------------------

  FORCE on cell =-STRESS in cart. coord.  units (eV):
  Direction    XX          YY          ZZ          XY          YZ          ZX
  Alpha Z   166.48303   166.48303   166.48303
  Ewald   42150.78248 40643.40485 42071.12378 -7945.62953  1883.94835  8506.48215
  Hartree 57395.14733 55992.03615 57382.69448 -7451.63934  1690.14271  7970.61529
  E(xc)   -2667.70637 -2667.93711 -2668.09780    -0.71013     0.49518     0.70649
  Local  ************************************ 15398.80857 -3571.57048-16475.68834
  n-local  -478.96040  -479.36266  -480.67713    -2.58343    -0.09828     1.88549
  augment  4227.45420  4228.57261  4227.71395     0.78647    -0.83720    -1.39022
  Kinetic  6296.39634  6298.60559  6296.38241     0.65107    -2.24908    -2.43423
  Fock        0.00000     0.00000     0.00000     0.00000     0.00000     0.00000
  Total     -15.78367   -16.25566   -16.13828    -0.31632    -0.16879     0.17663
  in kB      -2.33915    -2.40910    -2.39171    -0.04688    -0.02502     0.02618

 VOLUME and BASIS-vectors are now :
  energy-cutoff  :      249.84
  volume of cell :    10810.85
      direct lattice vectors                 reciprocal lattice vectors
    22.111589173  0.000000000  0.000000000     0.045225153  0.000000000  0.000000000
     0.000000000 22.111589173  0.000000000     0.000000000  0.045225153  0.000000000
     0.000000000  0.000000000 22.111589173     0.000000000  0.000000000  0.045225153

  length of vectors
    22.111589173 22.111589173 22.111589173     0.045225153  0.045225153  0.045225153

 FORCES acting on ions
    electron-ion (+dipol)            ewald-force                    non-local-force                 convergence-correction
   -.313E+03 0.169E+04 -.663E+02   0.313E+03 -.168E+04 0.673E+02   -.167E-01 -.507E+01 -.103E+01   0.626E-03 0.183E-02 -.186E-02
   -.100E+04 -.136E+04 0.494E+03   0.999E+03 0.135E+04 -.492E+03   0.241E+01 0.245E+01 -.163E+01   0.105E-02 -.227E-02 -.666E-03
   -.122E+04 0.124E+04 0.741E+02   0.121E+04 -.124E+04 -.722E+02   0.239E+01 -.200E+01 -.189E+01   -.238E-03 0.432E-03 0.122E-02
   0.959E+03 -.135E+04 0.573E+03   -.956E+03 0.134E+04 -.571E+03   -.243E+01 0.373E+01 -.212E+01   0.161E-03 0.786E-03 -.886E-03
   0.166E+04 -.455E+03 0.289E+03   -.166E+04 0.455E+03 -.288E+03   -.381E+01 0.128E+00 -.529E+00   -.943E-03 0.111E-02 -.772E-04
   0.444E+03 0.157E+04 0.618E+03   -.443E+03 -.157E+04 -.617E+03   -.101E+01 -.442E+01 -.134E+01   0.257E-03 0.114E-02 -.277E-03
   -.745E+01 0.264E+03 0.703E+03   0.706E+01 -.264E+03 -.702E+03   0.376E+00 -.335E+00 -.111E+01   -.353E-02 0.211E-02 0.742E-03
   0.984E+03 -.134E+04 -.307E+03   -.982E+03 0.134E+04 0.305E+03   -.142E+01 0.133E+01 0.168E+01   -.134E-02 0.149E-02 -.639E-03
   0.112E+04 -.307E+03 0.130E+04   -.111E+04 0.305E+03 -.130E+04   -.272E+01 0.138E+01 -.426E+01   0.339E-03 -.457E-04 -.229E-03
   -.673E+01 -.102E+04 0.141E+04   0.766E+01 0.102E+04 -.141E+04   -.925E+00 0.300E+01 -.447E+01   0.748E-03 0.525E-04 -.582E-03
   0.133E+03 0.163E+02 -.161E+04   -.133E+03 -.165E+02 0.161E+04   -.430E+00 0.165E+00 0.194E+01   0.538E-03 -.158E-02 -.228E-02
   0.120E+04 0.568E+03 0.107E+04   -.120E+04 -.566E+03 -.107E+04   -.182E+01 -.135E+01 -.909E+00   -.985E-03 0.234E-03 0.209E-02
   0.129E+03 0.583E+02 0.173E+04   -.130E+03 -.589E+02 -.173E+04   0.180E+00 0.587E+00 -.353E+01   -.819E-03 -.874E-04 0.377E-03
   -.530E+03 -.491E+03 -.587E+03   0.529E+03 0.490E+03 0.587E+03   0.118E+01 0.112E+01 0.434E+00   0.132E-02 0.185E-02 -.181E-02
   0.124E+04 0.948E+03 -.728E+03   -.123E+04 -.946E+03 0.727E+03   -.195E+01 -.116E+01 0.961E+00   -.380E-03 -.685E-03 -.110E-02
   0.168E+04 0.645E+03 0.745E+02   -.167E+04 -.643E+03 -.747E+02   -.566E+01 -.106E+01 0.220E+00   -.126E-02 0.244E-03 0.837E-03
   -.306E+03 0.926E+03 0.347E+03   0.306E+03 -.925E+03 -.346E+03   -.316E+00 -.103E+01 -.661E+00   0.466E-03 0.338E-02 -.169E-02
   -.127E+03 -.166E+04 0.528E+03   0.126E+03 0.165E+04 -.527E+03   0.112E+01 0.300E+01 -.160E+01   0.139E-03 0.343E-03 -.839E-03
   0.503E+03 -.573E+03 0.759E+03   -.503E+03 0.573E+03 -.759E+03   -.164E+00 0.720E+00 -.582E+00   0.207E-02 0.965E-03 0.167E-02
   0.112E+04 0.261E+03 -.129E+04   -.111E+04 -.260E+03 0.129E+04   -.161E+01 -.104E+01 0.256E+01   0.637E-03 -.830E-03 -.511E-03
   0.903E+03 0.526E+02 -.983E+02   -.902E+03 -.522E+02 0.975E+02   -.106E+01 -.465E+00 0.860E+00   -.502E-02 0.202E-02 0.321E-02
   -.152E+04 -.794E+03 0.115E+03   0.152E+04 0.792E+03 -.113E+03   0.217E+01 0.150E+01 -.134E+01   0.221E-02 -.337E-02 -.133E-02
   -.171E+04 0.117E+03 0.255E+03   0.170E+04 -.118E+03 -.256E+03   0.506E+01 0.354E+00 0.420E+00   0.592E-03 -.131E-02 0.128E-02
   0.668E+03 -.711E+03 -.775E+03   -.668E+03 0.712E+03 0.775E+03   -.616E+00 -.920E+00 0.460E+00   -.653E-03 0.288E-02 0.633E-03
   0.776E+03 -.755E+03 -.132E+04   -.772E+03 0.751E+03 0.131E+04   -.356E+01 0.319E+01 0.412E+01   0.138E-02 -.155E-02 0.123E-02
   -.147E+04 -.198E+03 -.897E+03   0.146E+04 0.197E+03 0.896E+03   0.331E+01 0.956E+00 0.735E+00   0.108E-02 0.571E-03 0.140E-02
   0.102E+04 0.116E+04 0.352E+03   -.102E+04 -.116E+04 -.352E+03   -.565E+00 -.973E+00 -.523E-01   -.407E-03 0.152E-02 -.527E-04
   0.146E+03 0.383E+03 -.453E+03   -.145E+03 -.382E+03 0.452E+03   -.111E+01 -.711E+00 0.128E+01   -.385E-03 0.272E-02 -.638E-03
   -.524E+03 0.518E+03 -.148E+04   0.524E+03 -.517E+03 0.148E+04   0.714E+00 -.853E+00 0.232E+01   -.947E-03 -.185E-03 -.359E-04
   0.634E+03 0.149E+04 -.531E+03   -.633E+03 -.149E+04 0.530E+03   -.112E+01 -.211E+01 0.867E+00   0.116E-02 0.176E-03 -.215E-02
   0.423E+03 0.951E+03 0.140E+04   -.423E+03 -.949E+03 -.140E+04   -.249E-01 -.235E+01 -.315E+01   0.405E-03 0.436E-03 0.844E-03
   0.158E+04 -.394E+03 -.683E+03   -.158E+04 0.393E+03 0.681E+03   -.361E+01 0.582E+00 0.220E+01   -.168E-02 0.112E-02 0.222E-02
   -.966E+03 -.138E+04 -.558E+03   0.963E+03 0.138E+04 0.557E+03   0.281E+01 0.284E+01 0.108E+01   0.181E-02 0.750E-04 -.980E-03
   -.113E+04 -.366E+03 0.770E+03   0.113E+04 0.367E+03 -.771E+03   0.146E+01 -.549E+00 0.542E+00   -.242E-02 -.107E-02 0.940E-04
   -.133E+04 0.499E+03 0.963E+03   0.133E+04 -.499E+03 -.960E+03   0.275E+01 -.113E+00 -.248E+01   0.184E-02 0.939E-03 0.154E-04
   -.591E+03 0.114E+04 0.120E+04   0.590E+03 -.114E+04 -.120E+04   0.790E+00 -.391E+01 -.234E+01   0.979E-03 0.150E-03 -.820E-03
   0.356E+02 -.169E+04 -.383E+03   -.359E+02 0.169E+04 0.381E+03   0.336E+00 0.328E+01 0.202E+01   0.317E-03 0.880E-03 -.797E-03
   -.438E+02 -.124E+04 -.121E+04   0.438E+02 0.124E+04 0.121E+04   0.706E-01 0.259E+01 0.241E+01   0.113E-02 -.416E-03 -.626E-03
   -.800E+03 0.145E+03 0.154E+04   0.798E+03 -.145E+03 -.154E+04   0.175E+01 0.577E+00 -.266E+01   0.147E-03 0.351E-03 0.141E-02
   -.806E+03 -.791E+03 0.127E+04   0.804E+03 0.789E+03 -.126E+04   0.180E+01 0.121E+01 -.163E+01   0.446E-03 -.632E-04 -.344E-03
   -.808E+03 -.532E+03 -.148E+04   0.807E+03 0.530E+03 0.147E+04   0.178E+01 0.204E+01 0.422E+01   -.743E-03 -.347E-03 -.601E-03
   0.433E+03 0.978E+03 -.139E+04   -.431E+03 -.976E+03 0.139E+04   -.175E+01 -.209E+01 0.288E+01   0.258E-03 -.190E-02 -.202E-02
   -.124E+03 -.666E+03 0.993E+02   0.124E+03 0.665E+03 -.987E+02   0.505E+00 0.101E+01 -.630E+00   -.455E-02 0.985E-03 -.438E-03
   -.125E+04 0.837E+03 -.916E+03   0.125E+04 -.835E+03 0.913E+03   0.338E+01 -.211E+01 0.247E+01   0.823E-04 -.635E-03 0.311E-02
   -.876E+03 0.293E+03 -.186E+03   0.875E+03 -.293E+03 0.186E+03   0.138E+01 -.450E-01 0.786E+00   0.386E-03 0.517E-03 0.233E-02
   -.334E+03 0.131E+04 -.980E+03   0.334E+03 -.131E+04 0.979E+03   0.479E+00 -.184E+01 0.144E+01   0.183E-03 -.101E-02 -.977E-03
   -.467E+00 -.120E+01 0.105E+01   -.244E-11 -.227E-12 0.136E-11   0.500E+00 0.122E+01 -.102E+01   -.354E-02 0.139E-01 -.535E-03

 POSITION                                       TOTAL-FORCE (eV/Angst)
     12.63419      5.81222     11.31996         0.009105      0.007835     -0.007943
     13.32192     14.54666     10.57196        -0.001888     -0.008986      0.002730
     14.92459      7.47455     11.44560         0.008365      0.001726      0.003665
      7.84095     15.32712      8.59617         0.002797     -0.003741     -0.003618
      6.69583     12.82719      9.75267         0.003204      0.006795     -0.007295
     10.59796      6.49343      9.36546         0.003711      0.007151      0.000565
     10.92233     10.66476      9.34786        -0.013035     -0.002179      0.004259
      8.56019     14.46654     11.20358        -0.006281      0.006332     -0.003492
      7.43992     12.93179      6.87654         0.011071     -0.002653      0.011435
     10.03888     14.52872      6.68129        -0.002527     -0.001943     -0.000777
     11.05306     11.69912     15.44560         0.000045     -0.003399     -0.010098
      8.05092     10.53384      8.27965        -0.004345      0.010872      0.000472
     10.16533     11.48040      6.62205        -0.009445      0.000578     -0.000094
     12.76339     12.46030     13.15040        -0.000943      0.004483     -0.011681
      8.23327      9.24630     12.82167        -0.001500     -0.003187     -0.000923
      6.48648     10.03754     10.68577        -0.007504      0.000539      0.001226
     12.26857      8.42646     10.42546         0.000821      0.008991     -0.004865
     10.66955     15.41452      9.45623         0.001124      0.006705     -0.001447
      9.32604     13.02721      8.81847        -0.038135      0.002627     -0.020375
      8.34301     11.08204     14.87135         0.003377     -0.003726     -0.002203
      8.80022     11.39603     11.06072         0.003153      0.004642     -0.001209
     15.30062     12.91496     11.79675         0.000718     -0.013471     -0.002712
     16.42217     10.22520     11.27495         0.006840     -0.031003      0.015643
      9.68450     13.01230     13.31898        -0.001347      0.007570      0.002265
      9.00550     13.63591     15.90065         0.007588     -0.009939      0.006605
     15.60716     11.38576     14.05026         0.004382     -0.002997      0.006295
      8.95145      8.62524     10.12105         0.002814      0.001177      0.001293
     11.11774     10.30205     12.28756        -0.001510      0.007766     -0.001893
     13.22181     10.08402     14.86594        -0.000381     -0.002924     -0.000476
     10.31309      7.34349     12.20471         0.003924      0.002718     -0.005788
     10.27514      8.69445      7.53634         0.001890      0.003210      0.001715
      6.88635     12.36716     12.71118        -0.008288      0.008322      0.011639
     13.93367     14.92648     13.40276         0.001607      0.004656     -0.006576
     13.63551     11.70887      9.86126        -0.010459     -0.009428      0.009525
     14.69931      9.19125      9.22402         0.006600     -0.001246      0.002537
     12.86882      7.51620      7.85926         0.004224      0.001288     -0.001660
     11.17324     15.33279     12.28202         0.001610      0.002620     -0.004072
     11.56203     14.43670     14.92777         0.001763     -0.001940     -0.004020
     12.78431     10.29960      7.36563         0.000927     -0.001807      0.005413
     12.07855     13.16131      8.08991         0.001532      0.002060     -0.004689
     13.81837     12.82126     15.64930        -0.001049     -0.004311     -0.000180
     10.50480      9.00306     14.62198         0.000773     -0.007586     -0.007061
     11.16869     12.90479     10.93045         0.004557      0.009803      0.019054
     15.55020      8.60361     13.89601         0.003393     -0.002553      0.007953
     13.90381     10.07046     12.07348         0.004320      0.003240      0.000831
     12.82090      7.74174     13.36845         0.002405     -0.004685      0.000027
    total drift:                                0.029800      0.032848      0.024283

  FREE ENERGIE OF THE ION-ELECTRON SYSTEM (eV)
  free  energy   TOTEN  =       -99.74319327 eV

  energy  without entropy=      -99.74319327  energy(sigma->0) =      -99.74319327

 d Force = 0.1341553E-04[ 0.218E-04, 0.502E-05]  d Energy = 0.1193638E-04 0.148E-05
 d Force = 0.1357960E+00[ 0.136E+00, 0.136E+00]  d Ewald  = 0.1357960E+00 0.138E-08

 reached required accuracy - stopping structural energy minimisation