 vasp.5.3.5 31Mar14 (build Feb 01 2018 12:10:03) gamma-only

 executed on             LinuxIFC date 2019.03.25  04:11:40

 INCAR:
 POTCAR:    PAW_PBE Ag 02Apr2005
 POTCAR:    PAW_PBE Ag 02Apr2005
   VRHFIN =Ag : s1 d10

   TITEL  = PAW_PBE Ag 02Apr2005
   POMASS =  107.868; ZVAL   =   11.000    mass and valenz
   ENMAX  =  249.844; ENMIN  =  187.383 eV

  PAW_PBE Ag 02Apr2005                  :

 POSCAR: Ti52, -349.79570745 <s> Ag </s>
  positions in direct lattice
 exchange correlation table for  LEXCH =        8
   RHO(1)=    0.500       N(1)  =     2000
   RHO(2)=  100.500       N(2)  =     4000

 ion  position               nearest neighbor table
   1  0.592  0.698  0.646-   4 2.62   2 2.67   7 2.67   6 2.68  11 2.77   3 2.81
   2  0.504  0.645  0.696-   1 2.67  12 2.72   9 2.76   5 2.79   8 2.84   3 2.87   7 2.89  11 3.46

   3  0.483  0.720  0.602-   5 2.71  11 2.72   1 2.81  10 2.85   4 2.86  13 2.86   2 2.87  12 3.50

[...]

   8  0.414  0.564  0.708-   5 2.60  12 2.63   9 2.63  19 2.82   2 2.84  18 2.91
   9  0.521  0.529  0.711-   8 2.63   7 2.69  19 2.70  21 2.76   2 2.76  12 2.77
  10  0.499  0.715  0.481-  23 2.57   4 2.62  11 2.79  13 2.84   3 2.85  14 2.98
  11  0.549  0.636  0.555-   4 2.62   6 2.66  12 2.70  14 2.72   3 2.72   1 2.77  10 2.79  17 2.83
                            23 2.85   7 2.90  24 3.14  13 3.32   2 3.46
  12  0.472  0.571  0.612-   8 2.63  24 2.63  18 2.68  11 2.70   5 2.70   2 2.72   9 2.77  19 2.85
                            13 3.01  21 3.03   7 3.24   3 3.50  37 3.53
  13  0.410  0.651  0.533-   5 2.61  23 2.75  10 2.84   3 2.86  33 2.94  12 3.01  18 3.03  11 3.32

  14  0.606  0.652  0.456-  11 2.72  22 2.75  30 2.78   6 2.90   4 2.94  10 2.98  23 2.98  32 3.06
                            17 3.19  36 3.31
  15  0.667  0.438  0.578-  16 2.50  25 2.64  28 2.71  21 2.77  17 2.84  26 2.88
  16  0.713  0.479  0.491-  15 2.50  22 2.57  31 2.66  26 2.73  17 2.79  28 2.93
  17  0.630  0.548  0.540-   6 2.65  16 2.79  22 2.81  11 2.83  15 2.84  30 2.87   7 2.87  21 2.87
                            28 2.93  24 3.16  14 3.19
  18  0.361  0.549  0.596-  12 2.68  37 2.77  29 2.78   5 2.82  43 2.86   8 2.91  33 2.99  13 3.03
                            19 3.19
  19  0.446  0.461  0.655-   9 2.70  37 2.71  29 2.77  20 2.81   8 2.82  12 2.85  21 2.89  27 2.92
                            34 3.15  18 3.19
  20  0.525  0.370  0.661-  34 2.61  39 2.78  19 2.81  27 2.86  21 2.86  25 2.89
  21  0.561  0.477  0.613-  34 2.73   9 2.76  15 2.77  24 2.82   7 2.86  20 2.86  17 2.87  19 2.89
                            12 3.03  28 3.19  25 3.47
  22  0.696  0.577  0.444-  32 2.52  16 2.57  14 2.75  31 2.76  17 2.81  30 2.84   6 3.47
  23  0.486  0.609  0.454-  10 2.57  24 2.63  36 2.68  38 2.73  13 2.75  33 2.83  35 2.84  11 2.85
                            30 2.86  14 2.98
  24  0.500  0.517  0.517-  23 2.63  12 2.63  37 2.75  21 2.82  30 2.90  45 2.91  33 2.95  28 2.96
                            34 3.01  11 3.14  17 3.16  35 3.21
  25  0.608  0.342  0.574-  15 2.64  39 2.69  34 2.75  40 2.78  26 2.86  20 2.89  28 3.08  21 3.47

  26  0.673  0.371  0.475-  28 2.45  16 2.73  25 2.86  15 2.88  40 3.05  44 3.20  31 3.30
  27  0.413  0.346  0.620-  41 2.74  39 2.77  20 2.86  29 2.87  34 2.87  47 2.89  19 2.92  37 3.02

[...]

  32  0.647  0.588  0.349-  22 2.52  30 2.64  42 2.78  31 2.78  36 2.82  14 3.06
  33  0.386  0.544  0.471-  46 2.77  38 2.79  43 2.80  23 2.83  37 2.84  35 2.90  13 2.94  24 2.95
                            18 2.99  49 3.08
  34  0.505  0.394  0.554-  39 2.56  20 2.61  37 2.66  21 2.73  25 2.75  47 2.79  40 2.80  45 2.81
                            28 2.85  27 2.87  24 3.01  19 3.15
  35  0.468  0.512  0.384-  48 2.48  45 2.52  38 2.67  36 2.73  46 2.80  23 2.84  33 2.90  30 2.93
                            42 2.93  52 2.94  50 3.01  24 3.21  49 3.41
  36  0.528  0.605  0.348-  23 2.68  35 2.73  30 2.74  42 2.75  32 2.82  38 2.93  48 3.21  14 3.31

  37  0.407  0.452  0.547-  43 2.59  29 2.61  34 2.66  41 2.69  19 2.71  49 2.74  24 2.75  18 2.77
                            33 2.84  27 3.02  45 3.29  47 3.34  12 3.53
  38  0.405  0.606  0.371-  46 2.59  35 2.67  23 2.73  33 2.79  36 2.93  48 2.95
  39  0.507  0.287  0.578-  34 2.56  47 2.68  25 2.69  27 2.77  20 2.78  40 2.85
  40  0.552  0.323  0.471-  25 2.78  34 2.80  45 2.83  39 2.85  28 2.94  47 2.95  44 2.97  51 2.98
                            26 3.05
  41  0.331  0.366  0.538-  43 2.66  37 2.69  47 2.71  29 2.72  27 2.74  49 2.77
  42  0.573  0.501  0.317-  50 2.62  30 2.74  36 2.75  32 2.78  44 2.79  31 2.91  35 2.93  48 3.27

  43  0.302  0.474  0.520-  37 2.59  41 2.66  29 2.79  33 2.80  49 2.84  18 2.86
  44  0.585  0.397  0.374-  50 2.67  45 2.73  42 2.79  28 2.84  31 2.87  40 2.97  51 3.15  26 3.20
                            30 3.55
  45  0.491  0.422  0.438-  51 2.48  35 2.52  28 2.72  44 2.73  49 2.75  34 2.81  40 2.83  24 2.91
                            47 3.16  50 3.22  37 3.29  52 3.34  30 3.49
  46  0.350  0.510  0.364-  52 2.51  38 2.59  33 2.77  35 2.80  48 2.85  49 2.88
  47  0.430  0.319  0.500-  39 2.68  41 2.71  34 2.79  27 2.89  40 2.95  51 2.95  49 2.99  45 3.16
                            37 3.34
  48  0.440  0.523  0.283-  35 2.48  52 2.75  50 2.83  46 2.85  38 2.95  36 3.21  42 3.27
  49  0.373  0.417  0.441-  52 2.70  37 2.74  45 2.75  41 2.77  43 2.84  46 2.88  47 2.99  33 3.08
                            51 3.16  35 3.41
  50  0.499  0.419  0.301-  52 2.41  42 2.62  44 2.67  51 2.79  48 2.83  35 3.01  45 3.22
  51  0.464  0.337  0.380-  45 2.48  52 2.77  50 2.79  47 2.95  40 2.98  44 3.15  49 3.16
  52  0.400  0.422  0.328-  50 2.41  46 2.51  49 2.70  48 2.75  51 2.77  35 2.94  45 3.34

  LATTYP: Found a simple cubic cell.
 ALAT       =    23.4247377435

  Lattice vectors:

 A1 = (  23.4247377435,   0.0000000000,   0.0000000000)
 A2 = (   0.0000000000,  23.4247377435,   0.0000000000)
 A3 = (   0.0000000000,   0.0000000000,  23.4247377435)

Analysis of symmetry for initial positions (statically):
 Subroutine PRICEL returns:
 Original cell was already a primitive cell.

 Routine SETGRP: Setting up the symmetry group for a
 simple cubic supercell.

 Subroutine GETGRP returns: Found  1 space group operations
 (whereof  1 operations were pure point group operations)
 out of a pool of 48 trial point group operations.

The static configuration has the point symmetry C_1 .

Analysis of symmetry for dynamics (positions and initial velocities):
 Subroutine PRICEL returns:
 Original cell was already a primitive cell.

 Routine SETGRP: Setting up the symmetry group for a
 simple cubic supercell.

 Subroutine GETGRP returns: Found  1 space group operations
 (whereof  1 operations were pure point group operations)
 out of a pool of 48 trial point group operations.

The dynamic configuration has the point symmetry C_1 .

Analysis of magnetic symmetry:
 Subroutine PRICEL returns:
 Original cell was already a primitive cell.

 Subroutine MAGSYM returns: Found  1 space group operations
 (whereof  1 operations were pure point group operations)
 out of a pool of  1 trial space group operations
 (whereof  1 operations were pure point group operations)
 and found also     1 'primitive' translations

The magnetic configuration has the point symmetry C_1 .

 KPOINTS: Gamma-point only
  k-points in reciprocal lattice
Space group operators:
 irot       det(A)        alpha          n_x          n_y          n_z        tau_x        tau_y        tau_z
    1     1.000000     0.000000     1.000000     0.000000     0.000000     0.000000     0.000000     0.000000

 I would recommend the setting:
   dimension x,y,z NGX =    91 NGY =   91 NGZ =   91
 SYSTEM =  unknown system
 POSCAR =  Ti52, -349.79570745 <s> Ag </s>

 Startparameter for this run:
   NWRITE =      2    write-flag & timer
   PREC   = normal    normal or accurate (medium, high low for compatibility)
   ISTART =      0    job   : 0-new  1-cont  2-samecut
   ICHARG =      2    charge: 1-file 2-atom 10-const
   ISPIN  =      2    spin polarized calculation?
   LNONCOLLINEAR =      F non collinear calculations
   LSORBIT =      F    spin-orbit coupling
   INIWAV =      1    electr: 0-lowe 1-rand  2-diag
   LASPH  =      F    aspherical Exc in radial PAW
   METAGGA=      F    non-selfconsistent MetaGGA calc.

 Electronic Relaxation 1
   ENCUT  =  249.8 eV  18.36 Ry    4.29 a.u.  30.19 30.19 30.19*2*pi/ulx,y,z
   ENINI  =  249.8     initial cutoff
   ENAUG  =  412.5 eV  augmentation charge cutoff
   NELM   =     60;   NELMIN=  2; NELMDL= -5     # of ELM steps
   EDIFF  = 0.1E-03   stopping-criterion for ELM
   LREAL  =      F    real-space projection
   NLSPLINE    = F    spline interpolate recip. space projectors
   LCOMPAT=      F    compatible to vasp.4.4
   GGA_COMPAT  = T    GGA compatible to vasp.4.4-vasp.4.6
   LMAXPAW     = -100 max onsite density
   LMAXMIX     =    2 max onsite mixed and CHGCAR
   VOSKOWN=      0    Vosko Wilk Nusair interpolation
   ROPT   =    0.00000
 Ionic relaxation
   EDIFFG = 0.1E-02   stopping-criterion for IOM
   NSW    =   1000    number of steps for IOM
   NBLOCK =      1;   KBLOCK =   1000    inner block; outer block
   IBRION =      2    ionic relax: 0-MD 1-quasi-New 2-CG
   NFREE  =      1    steps in history (QN), initial steepest desc. (CG)
   ISIF   =      2    stress and relaxation
   IWAVPR =     11    prediction:  0-non 1-charg 2-wave 3-comb
   ISYM   =      2    0-nonsym 1-usesym 2-fastsym
   LCORR  =      T    Harris-Foulkes like correction to forces

   POTIM  = 0.1000    time-step for ionic-motion
   TEIN   =    0.0    initial temperature
   TEBEG  =    0.0;   TEEND  =   0.0 temperature during run
   SMASS  =  -3.00    Nose mass-parameter (am)
   estimated Nose-frequenzy (Omega)   =  0.10E-29 period in steps =****** mass=  -0.125E-25a.u.
   SCALEE = 1.0000    scale energy and forces
   NPACO  =    256;   APACO  = 16.0  distance and # of slots for P.C.
   PSTRESS=    0.0 pullay stress

  Mass of Ions in am
   POMASS = 107.87
  Ionic Valenz
   ZVAL   =  11.00
  Atomic Wigner-Seitz radii
  virtual crystal weights
   VCA    =   1.00
   NELECT =     572.0000    total number of electrons
   NUPDOWN=      -1.0000    fix difference up-down

 DOS related values:
   EMIN   =  10.00;   EMAX   =-10.00  energy-range for DOS
   EFERMI =   0.00
   ISMEAR =     0;   SIGMA  =   0.00  broadening in eV -4-tet -1-fermi 0-gaus

 Electronic relaxation 2 (details)
   IALGO  =     38    algorithm
   LDIAG  =      T    sub-space diagonalisation (order eigenvalues)
   LSUBROT=      F    optimize rotation matrix (better conditioning)
   TURBO    =      0    0=normal 1=particle mesh
   IRESTART =      0    0=no restart 2=restart with 2 vectors
   NREBOOT  =      0    no. of reboots
   NMIN     =      0    reboot dimension
   EREF     =   0.00    reference energy to select bands
   IMIX   =      4    mixing-type and parameters
     AMIX     =   0.40;   BMIX     =  1.00
     AMIX_MAG =   1.60;   BMIX_MAG =  1.00
     AMIN     =   0.10
     WC   =   100.;   INIMIX=   1;  MIXPRE=   1;  MAXMIX= -45

 Intra band minimization:
   WEIMIN = 0.0010     energy-eigenvalue tresh-hold
   EBREAK =  0.67E-07  absolut break condition
[...]
      41 -81.9503      42 -82.1089      43 -81.9502      44 -82.0503      45 -82.3531
      46 -81.9330      47 -82.0308      48 -81.9519      49 -82.0709      50 -81.9106
      51 -81.9125      52 -82.1520

 E-fermi :  -3.2604     XC(G=0):  -1.3678     alpha+bet : -0.9286

[...]

 spin component 2

 k-point     1 :       0.0000    0.0000    0.0000
  band No.  band energies     occupation
      1      -9.7486      1.00000
      2      -9.2189      1.00000
      3      -9.1477      1.00000
      4      -9.0998      1.00000
      5      -9.0778      1.00000
      6      -9.0402      1.00000
      7      -9.0048      1.00000
      8      -8.9551      1.00000
      9      -8.9490      1.00000
     10      -8.9184      1.00000
     11      -8.8934      1.00000
     12      -8.8896      1.00000
     13      -8.8695      1.00000
     14      -8.8423      1.00000
     15      -8.8351      1.00000
     16      -8.8017      1.00000
     17      -8.7620      1.00000
     18      -8.7547      1.00000
     19      -8.7288      1.00000
     20      -8.7152      1.00000
     21      -8.6889      1.00000
     22      -8.6643      1.00000
     23      -8.6437      1.00000
     24      -8.6355      1.00000
     25      -8.6165      1.00000
     26      -8.6067      1.00000
     27      -8.5621      1.00000
     28      -8.5579      1.00000
     29      -8.5462      1.00000
     30      -8.5390      1.00000
     31      -8.5041      1.00000
     32      -8.4993      1.00000
     33      -8.4942      1.00000
     34      -8.4789      1.00000
     35      -8.4761      1.00000
     36      -8.4640      1.00000
     37      -8.4493      1.00000
     38      -8.4341      1.00000
     39      -8.4242      1.00000
     40      -8.4177      1.00000
     41      -8.3950      1.00000
     42      -8.3824      1.00000
     43      -8.3516      1.00000
     44      -8.3457      1.00000
     45      -8.3301      1.00000
     46      -8.3223      1.00000
     47      -8.3142      1.00000
     48      -8.2953      1.00000
     49      -8.2826      1.00000
     50      -8.2694      1.00000
     51      -8.2420      1.00000
     52      -8.2263      1.00000
     53      -8.2152      1.00000
     54      -8.2094      1.00000
     55      -8.2073      1.00000
     56      -8.1931      1.00000
     57      -8.1771      1.00000
     58      -8.1568      1.00000
     59      -8.1451      1.00000
     60      -8.1288      1.00000
[...]
    358       1.3882      0.00000
    359       1.3995      0.00000
    360       1.4373      0.00000
    361       1.4475      0.00000
    362       1.4623      0.00000
    363       1.4740      0.00000
    364       1.4910      0.00000
    365       1.5004      0.00000
    366       1.5177      0.00000
    367       1.5334      0.00000
    368       1.5682      0.00000
    369       1.5869      0.00000
    370       1.6451      0.00000
    371       1.6553      0.00000
    372       1.6961      0.00000

[...]

 soft charge-density along one line, spin component           2
         0         1         2         3         4         5         6         7         8         9
 total charge-density along one line

------------------------ aborting loop because EDIFF is reached ----------------------------------------

  FORCE on cell =-STRESS in cart. coord.  units (eV):
  Direction    XX          YY          ZZ          XY          YZ          ZX
  Alpha Z   178.93556   178.93556   178.93556
  Ewald   42260.57030 60433.97204 56633.78296  5788.67760  4715.00212 -4145.11092
  Hartree 60006.64797 77405.52019 73769.58351  5397.55400  4488.28209 -3893.32639
  E(xc)   -3016.48881 -3015.58072 -3015.83414     0.65285     0.08518    -0.26674
  Local  ************************************-11183.95907 -9204.10434  8037.88028
  n-local  -538.87847  -537.50702  -537.92947     1.29813     0.67621    -1.12256
  augment  4780.46195  4778.60587  4778.92232    -1.37515     0.12554     0.73293
  Kinetic  7120.27010  7115.59951  7116.32331    -2.77987    -0.07754     1.18536
  Fock        0.00000     0.00000     0.00000     0.00000     0.00000     0.00000
  Total     -18.87472   -19.10477   -19.04326     0.06849    -0.01074    -0.02803
  in kB      -2.35270    -2.38138    -2.37371     0.00854    -0.00134    -0.00349

 VOLUME and BASIS-vectors are now :
  energy-cutoff  :      249.84
  volume of cell :    12853.58
      direct lattice vectors                 reciprocal lattice vectors
    23.424737744  0.000000000  0.000000000     0.042689912  0.000000000  0.000000000
     0.000000000 23.424737744  0.000000000     0.000000000  0.042689912  0.000000000
     0.000000000  0.000000000 23.424737744     0.000000000  0.000000000  0.042689912

  length of vectors
    23.424737744 23.424737744 23.424737744     0.042689912  0.042689912  0.042689912

 FORCES acting on ions
    electron-ion (+dipol)            ewald-force                    non-local-force                 convergence-correction
   -.805E+03 -.125E+04 -.101E+04   0.803E+03 0.125E+04 0.101E+04   0.287E+01 0.172E+01 0.305E+01   -.502E-03 0.112E-02 0.162E-02
   -.422E+02 -.927E+03 -.154E+04   0.433E+02 0.926E+03 0.154E+04   -.111E+01 0.109E+01 0.330E+01   -.833E-03 -.372E-02 -.341E-02
   0.369E+03 -.159E+04 -.641E+03   -.369E+03 0.159E+04 0.639E+03   -.150E+00 0.275E+01 0.103E+01   0.435E-02 -.161E-02 0.909E-03
   -.690E+03 -.165E+04 0.432E+02   0.689E+03 0.165E+04 -.420E+02   0.144E+01 0.404E+01 -.122E+01   0.272E-02 -.527E-02 0.313E-02
   0.110E+04 -.111E+04 -.101E+04   -.110E+04 0.110E+04 0.100E+04   -.284E+01 0.295E+01 0.254E+01   -.530E-02 0.421E-02 -.286E-03
   -.152E+04 -.914E+03 -.383E+03   0.152E+04 0.912E+03 0.381E+03   0.320E+01 0.176E+01 0.116E+01   -.363E-02 0.801E-04 0.146E-02
   -.108E+04 -.382E+03 -.129E+04   0.108E+04 0.381E+03 0.129E+04   0.130E+01 0.753E+00 0.155E+01   -.116E-02 0.313E-03 0.320E-02
   0.965E+03 -.175E+03 -.156E+04   -.963E+03 0.175E+03 0.155E+04   -.189E+01 0.371E+00 0.428E+01   0.632E-02 -.130E-02 0.287E-02
   -.283E+03 0.490E+02 -.181E+04   0.281E+03 -.477E+02 0.181E+04   0.172E+01 -.121E+01 0.460E+01   -.464E-02 0.823E-03 -.791E-02
   0.459E+03 -.171E+04 0.451E+03   -.457E+03 0.170E+04 -.448E+03   -.181E+01 0.378E+01 -.279E+01   0.467E-03 0.255E-02 0.505E-02
   -.335E+03 -.899E+03 -.199E+03   0.334E+03 0.897E+03 0.198E+03   0.528E+00 0.192E+01 0.288E+00   0.438E-02 0.486E-02 0.605E-03
   0.260E+03 -.420E+03 -.853E+03   -.260E+03 0.419E+03 0.852E+03   -.344E+00 0.794E+00 0.114E+01   0.382E-02 -.216E-02 0.134E-01
   0.114E+04 -.121E+04 -.299E+02   -.114E+04 0.121E+04 0.305E+02   -.206E+01 -.105E+00 -.656E+00   -.608E-02 -.653E-03 -.562E-02
   -.703E+03 -.143E+04 0.817E+03   0.701E+03 0.142E+04 -.817E+03   0.212E+01 0.157E+01 -.487E+00   -.253E-02 -.237E-02 -.238E-02
   -.148E+04 0.572E+03 -.992E+03   0.148E+04 -.571E+03 0.989E+03   0.336E+01 -.686E+00 0.270E+01   0.717E-03 -.271E-02 -.652E-02
   -.185E+04 0.232E+03 -.357E+02   0.185E+04 -.232E+03 0.346E+02   0.445E+01 -.230E-01 0.117E+01   -.607E-03 0.387E-03 -.799E-03
   -.126E+04 -.208E+03 -.530E+03   0.126E+04 0.208E+03 0.531E+03   0.240E-01 0.556E-02 -.928E+00   -.103E-02 -.148E-01 0.321E-02
   0.150E+04 -.558E+03 -.551E+03   -.150E+04 0.557E+03 0.550E+03   -.125E+01 0.872E+00 0.550E+00   -.264E-02 -.893E-02 -.575E-02
   0.373E+03 0.544E+03 -.147E+04   -.372E+03 -.544E+03 0.147E+04   -.999E+00 0.269E+00 0.419E+00   0.170E-02 0.522E-02 0.143E-02
   -.415E+03 0.108E+04 -.149E+04   0.412E+03 -.107E+04 0.149E+04   0.271E+01 -.273E+01 0.385E+01   0.186E-02 -.446E-02 0.689E-02
   -.731E+03 0.326E+03 -.122E+04   0.731E+03 -.325E+03 0.122E+04   0.161E+00 -.222E+00 0.702E+00   -.254E-02 0.794E-02 0.538E-02
   -.166E+04 -.669E+03 0.370E+03   0.166E+04 0.667E+03 -.369E+03   0.244E+01 0.125E+01 -.130E+01   -.156E-02 0.539E-02 0.826E-03
   0.517E+03 -.118E+04 0.654E+03   -.517E+03 0.118E+04 -.654E+03   0.401E+00 0.118E+01 -.298E+00   -.354E-02 0.130E-03 -.591E-02
   0.106E+03 -.135E+03 -.108E+03   -.105E+03 0.135E+03 0.108E+03   -.603E+00 -.440E-01 -.356E-01   -.419E-02 -.564E-02 -.697E-02
   -.105E+04 0.138E+04 -.621E+03   0.105E+04 -.138E+04 0.619E+03   0.120E+01 -.211E+01 0.195E+01   -.160E-03 -.305E-02 0.679E-02
   -.143E+04 0.118E+04 0.369E+03   0.143E+04 -.118E+04 -.369E+03   0.351E+01 -.301E+01 -.483E+00   -.812E-03 0.290E-02 0.386E-03
   0.779E+03 0.133E+04 -.102E+04   -.777E+03 -.132E+04 0.102E+04   -.143E+01 -.261E+01 0.202E+01   -.390E-02 -.241E-02 0.165E-02
   -.810E+03 0.519E+03 0.101E+03   0.809E+03 -.518E+03 -.101E+03   0.109E+01 -.997E+00 -.152E+00   -.782E-03 0.629E-02 -.292E-02
   0.142E+04 0.446E+03 -.112E+04   -.142E+04 -.446E+03 0.112E+04   -.401E+01 -.614E+00 0.153E+01   0.212E-02 -.595E-03 -.278E-02
   -.607E+03 -.379E+03 0.593E+03   0.606E+03 0.379E+03 -.592E+03   0.967E+00 0.302E+00 -.899E+00   -.623E-02 0.387E-02 -.196E-02
   -.146E+04 0.302E+03 0.104E+04   0.146E+04 -.301E+03 -.104E+04   0.308E+01 -.595E+00 -.129E+01   -.533E-02 -.471E-02 -.111E-02
   -.117E+04 -.716E+03 0.133E+04   0.116E+04 0.714E+03 -.132E+04   0.244E+01 0.238E+01 -.387E+01   -.494E-02 0.126E-02 -.125E-02
   0.137E+04 -.635E+03 0.343E+03   -.137E+04 0.635E+03 -.342E+03   -.153E+01 -.334E+00 -.671E+00   -.909E-04 0.512E-03 0.104E-01
   -.105E+03 0.858E+03 -.499E+03   0.104E+03 -.856E+03 0.498E+03   0.577E+00 -.151E+01 0.424E+00   -.408E-02 0.460E-02 -.968E-02
   0.434E+03 -.146E+03 0.901E+03   -.433E+03 0.146E+03 -.900E+03   -.817E+00 -.899E-02 -.109E+01   0.464E-02 -.132E-01 0.779E-02
   -.117E+03 -.109E+04 0.149E+04   0.116E+03 0.109E+04 -.148E+04   0.480E+00 0.259E+01 -.238E+01   -.510E-03 -.476E-02 -.147E-02
   0.869E+03 0.338E+03 -.273E+03   -.868E+03 -.337E+03 0.273E+03   -.109E+01 -.423E+00 0.313E+00   0.458E-02 0.642E-02 -.155E-03
   0.102E+04 -.110E+04 0.115E+04   -.102E+04 0.109E+04 -.115E+04   -.188E+01 0.400E+01 -.243E+01   0.366E-03 0.514E-02 -.371E-03
   -.105E+02 0.178E+04 -.527E+03   0.104E+02 -.178E+04 0.526E+03   0.173E+00 -.478E+01 0.138E+01   -.193E-02 -.206E-02 -.151E-03
   -.460E+03 0.167E+04 0.394E+03   0.459E+03 -.167E+04 -.393E+03   0.639E+00 -.251E+01 -.717E+00   -.103E-01 0.281E-02 -.948E-02
   0.150E+04 0.112E+04 -.192E+03   -.150E+04 -.112E+04 0.191E+03   -.370E+01 -.268E+01 0.152E+01   -.640E-03 -.536E-02 -.418E-02
   -.637E+03 0.761E+02 0.156E+04   0.637E+03 -.761E+02 -.156E+04   0.115E+00 -.206E-02 -.163E+01   0.863E-02 0.297E-02 0.465E-02
   0.186E+04 -.482E+02 0.246E+02   -.186E+04 0.476E+02 -.236E+02   -.505E+01 0.570E+00 -.919E+00   0.131E-02 0.556E-02 -.126E-03
   -.799E+03 0.103E+04 0.113E+04   0.799E+03 -.103E+04 -.113E+04   0.122E+00 -.123E+01 -.161E+01   0.951E-02 0.508E-02 0.563E-02
   0.240E+03 0.685E+03 0.562E+03   -.240E+03 -.684E+03 -.561E+03   0.202E+00 -.813E+00 -.912E+00   -.450E-02 -.323E-02 -.737E-02
   0.155E+04 -.162E+03 0.103E+04   -.154E+04 0.161E+03 -.103E+04   -.418E+01 0.708E+00 -.130E+01   0.235E-02 -.513E-03 -.341E-02
   0.766E+03 0.160E+04 0.239E+03   -.765E+03 -.160E+04 -.239E+03   -.542E+00 -.186E+01 -.618E+00   0.570E-02 0.245E-02 -.574E-03
   0.422E+03 -.215E+03 0.177E+04   -.419E+03 0.215E+03 -.176E+04   -.245E+01 0.586E+00 -.416E+01   -.404E-02 -.449E-02 -.331E-02
   0.142E+04 0.748E+03 0.677E+03   -.142E+04 -.748E+03 -.676E+03   -.138E+01 -.449E+00 -.536E+00   0.941E-02 -.103E-02 -.104E-01
   -.141E+03 0.782E+03 0.162E+04   0.140E+03 -.780E+03 -.161E+04   0.111E+01 -.169E+01 -.428E+01   0.337E-02 0.906E-03 -.731E-02
   0.299E+03 0.153E+04 0.101E+04   -.298E+03 -.153E+04 -.101E+04   -.101E+01 -.376E+01 -.179E+01   0.694E-03 0.560E-02 0.532E-02
   0.926E+03 0.722E+03 0.134E+04   -.926E+03 -.720E+03 -.133E+04   -.656E+00 -.163E+01 -.255E+01   -.142E-01 -.477E-02 0.628E-02
   0.400E+00 0.474E+00 0.578E+00   0.205E-11 -.534E-11 -.114E-11   -.339E+00 -.428E+00 -.577E+00   -.242E-01 -.144E-01 -.146E-01

 POSITION                                       TOTAL-FORCE (eV/Angst)
     14.05115     16.55826     15.03604        -0.002653      0.006244      0.007405
     11.97450     15.27957     16.54958         0.002200     -0.000538      0.006725
     11.43305     16.77286     14.20106         0.002676     -0.007644      0.001461
     13.95685     17.40633     12.41819         0.011101     -0.008911      0.003145
      9.30934     15.27949     15.43837         0.002314     -0.001735      0.006430
     15.65706     15.26948     13.01962         0.002364     -0.005727      0.029008
     14.04754     13.81013     15.27765        -0.001805      0.003870     -0.002127
      9.22964     12.67110     16.52597        -0.000278     -0.005883     -0.000516
     12.11370     12.47866     17.02854        -0.000794     -0.001810     -0.005884
     11.43191     17.14916     11.42383         0.008296     -0.001979      0.003621
     12.87160     14.77542     12.61903         0.005022      0.001557     -0.008901
     11.18708     13.36060     14.54846         0.005811      0.004869      0.006062
      9.81989     15.10716     12.68918        -0.003180     -0.000974     -0.002077
     13.86606     15.76583     10.02856        -0.012220      0.005788     -0.009759
     15.60353     10.09310     13.85217        -0.005817     -0.011790     -0.021304
     16.84258     11.11370     11.58503         0.002403      0.011192     -0.000975
     14.81203     12.64342     12.87544        -0.000709     -0.003880     -0.000069
      8.35565     12.98096     13.89447         0.005471     -0.005009     -0.005237
     10.64615     10.50520     15.56960         0.002743      0.003040     -0.006401
     12.51966      8.40771     15.59959         0.001988     -0.003300     -0.001931
     13.21167     11.19117     14.69972        -0.000514      0.003516     -0.004282
     16.20689     13.77439     10.69741        -0.004165      0.016476      0.007185
     11.15840     14.66406     10.33076        -0.012286      0.003273     -0.004216
     11.72819     12.14815     12.10813        -0.005411     -0.000145     -0.001330
     14.37779      7.74702     13.28810         0.000459     -0.019678      0.005154
     15.74839      8.52971     10.82073         0.002566      0.006435      0.014913
      9.72481      8.12739     14.43440         0.001732     -0.002017     -0.001165
     13.92487     10.37305     11.46283        -0.004593      0.008093     -0.008520
      7.87788     10.38671     15.01518         0.000679      0.001546      0.001512
     13.52780     12.95275     10.15465        -0.003899      0.008949      0.002005
     15.56775     11.20879      9.18014        -0.003092      0.003760      0.001522
     15.15062     13.87195      8.09784        -0.001949      0.003809      0.002824
      8.92109     12.92548     11.05798        -0.006482     -0.001415      0.001793
     11.93888      9.28157     13.10481         0.002268     -0.002549     -0.007296
     10.88622     12.17990      9.18147         0.000060     -0.000155      0.001290
     12.35438     14.32153      7.80554        -0.000343      0.003928      0.000680
      9.50763     10.59036     12.74602         0.000592     -0.002667     -0.000201
      9.45967     14.28760      8.10939        -0.007364     -0.003957     -0.008002
     11.81816      6.49592     13.45470        -0.005120     -0.005612     -0.008833
     12.90920      7.45856     10.96884        -0.001281      0.002272     -0.004558
      7.55498      8.54029     12.69621        -0.001828     -0.003576      0.004701
     13.33338     11.66502      7.55627         0.000539      0.002026      0.006894
      6.85764     11.24674     12.23598        -0.002290      0.001635      0.007837
     13.69630      9.10382      8.82416         0.010301      0.002100      0.002467
     11.28742      9.81022     10.40924        -0.003400     -0.000195     -0.003884
      8.05439     11.95622      8.54163        -0.005716     -0.006234     -0.002313
      9.98139      7.58836     11.52378        -0.000724      0.002580     -0.004388
     10.79619     12.17804      6.45118         0.003918      0.003266     -0.004168
      8.36255      9.71511     10.27288        -0.003806     -0.000359     -0.002309
     12.04688      9.40183      6.56946         0.007860     -0.002477     -0.005328
     11.16470      7.60236      8.71917         0.013070     -0.001117     -0.000312
      9.73776      9.87835      7.88924         0.005285      0.001112      0.011650
    total drift:                                0.037371      0.031488     -0.013542

  FREE ENERGIE OF THE ION-ELECTRON SYSTEM (eV)
  free  energy   TOTEN  =      -113.56134513 eV

  energy  without entropy=     -113.56134513  energy(sigma->0) =     -113.56134513

 d Force = 0.8336830E-04[ 0.594E-04, 0.107E-03]  d Energy = 0.1243584E-03-0.410E-04
 d Force =-0.5591739E+00[-0.560E+00,-0.558E+00]  d Ewald  =-0.5591734E+00-0.526E-06

 reached required accuracy - stopping structural energy minimisation