 vasp.5.3.5 31Mar14 (build Feb 01 2018 12:10:03) gamma-only

 executed on             LinuxIFC date 2019.03.25  01:42:17

 INCAR:
 POTCAR:    PAW_PBE Ag 02Apr2005
 POTCAR:    PAW_PBE Ag 02Apr2005
   VRHFIN =Ag : s1 d10

   TITEL  = PAW_PBE Ag 02Apr2005
   POMASS =  107.868; ZVAL   =   11.000    mass and valenz
   ENMAX  =  249.844; ENMIN  =  187.383 eV

  PAW_PBE Ag 02Apr2005                  :

 POSCAR: Al51, -162.5472677 <s> Ag </s>
  positions in direct lattice
 exchange correlation table for  LEXCH =        8
   RHO(1)=    0.500       N(1)  =     2000
   RHO(2)=  100.500       N(2)  =     4000

 ion  position               nearest neighbor table
   1  0.382  0.488  0.690-  14 2.75   2 2.81   3 2.93   6 2.96   5 3.04
   2  0.368  0.592  0.631-   6 2.78   4 2.80   1 2.81  11 2.86   9 2.93  14 2.94  17 3.04
   3  0.506  0.467  0.694-  13 2.74   6 2.80  14 2.83  15 2.85  20 2.88   1 2.93   8 3.15  12 3.52

   4  0.360  0.687  0.558-  11 2.69   7 2.76   2 2.80  21 2.80  17 2.95  16 3.05
   5  0.351  0.413  0.588-   9 2.74  12 2.76  25 2.88   1 3.04  14 3.05  19 3.07  27 3.10
   6  0.468  0.581  0.694-   2 2.78   3 2.80  11 2.84  15 2.84  10 2.84  23 2.90   1 2.96  14 3.03

[...]

  10  0.546  0.675  0.697-  11 2.74  22 2.77  26 2.78   6 2.84  23 2.90  15 2.90
  11  0.456  0.677  0.621-   4 2.69  10 2.74  23 2.78  16 2.83   6 2.84   2 2.86  22 3.01  17 3.04
                            29 3.34
  12  0.462  0.373  0.584-   5 2.76  27 2.78  35 2.79  13 2.81  20 2.99  25 3.00  37 3.02  14 3.04
                             3 3.52
  13  0.552  0.363  0.664-   3 2.74  18 2.76  35 2.80  12 2.81   8 2.89  20 3.03
  14  0.447  0.502  0.593-  20 2.66  27 2.66   1 2.75  17 2.75   3 2.83   9 2.88   2 2.94   6 3.03
                            12 3.04   5 3.05  23 3.21  28 3.43
  15  0.588  0.557  0.701-  23 2.80  31 2.81   8 2.83   6 2.84   3 2.85  10 2.90  26 3.04
  16  0.462  0.766  0.538-  21 2.77  11 2.83  29 2.87  22 2.98   4 3.05
  17  0.438  0.595  0.521-  14 2.75  29 2.82  34 2.85  28 2.89   9 2.91  21 2.94   4 2.95   7 2.99
                             2 3.04  11 3.04  23 3.06  32 3.31  27 3.51
  18  0.662  0.341  0.626-  45 2.75  13 2.76  30 2.79  35 2.81   8 2.85
  19  0.313  0.426  0.462-  25 2.71   9 2.79  36 2.82  32 2.90  27 3.05   5 3.07
  20  0.554  0.462  0.580-  14 2.66  30 2.76  28 2.77  33 2.84   3 2.88  35 2.96   8 2.99  12 2.99
                            31 3.01  13 3.03  23 3.24  27 3.38
  21  0.416  0.698  0.452-  24 2.72  16 2.77   4 2.80  34 2.85  29 2.89  17 2.94   7 2.97
  22  0.571  0.729  0.594-  10 2.77  29 2.82  26 2.86  38 2.95  16 2.98  11 3.01  23 3.08
  23  0.544  0.600  0.598-  28 2.76  11 2.78  15 2.80  31 2.81  38 2.89  29 2.90   6 2.90  10 2.90
                            17 3.06  22 3.08  26 3.12  14 3.21  20 3.24
  24  0.373  0.631  0.367-  40 2.67  21 2.72   7 2.74  34 2.83  32 2.87
  25  0.376  0.334  0.496-  37 2.69  19 2.71   5 2.88  36 2.92  12 3.00  27 3.00
  26  0.654  0.657  0.649-  10 2.78  38 2.83  31 2.86  22 2.86  15 3.04  23 3.12
  27  0.439  0.447  0.494-  14 2.66  12 2.78  36 2.80  32 2.80  39 2.84   9 2.99  25 3.00  37 3.03
                            19 3.05   5 3.10  33 3.26  20 3.38  28 3.39  17 3.51
  28  0.547  0.543  0.493-  23 2.76  20 2.77  39 2.85  44 2.87  34 2.87  33 2.87  17 2.89  42 3.00
                            29 3.00  50 3.25  38 3.25  27 3.39  14 3.43  31 3.47
  29  0.528  0.671  0.497-  34 2.74  38 2.75  22 2.82  17 2.82  16 2.87  21 2.89  23 2.90  44 2.91
                            28 3.00  11 3.34
  30  0.666  0.436  0.554-  31 2.75  20 2.76  18 2.79  45 2.83  41 2.83  42 2.87   8 2.91  33 2.99
                            35 3.14
  31  0.651  0.544  0.600-  30 2.75   8 2.81  15 2.81  23 2.81  42 2.85  38 2.85  26 2.86  20 3.01
                            28 3.47
  32  0.383  0.518  0.415-  27 2.80  39 2.84  24 2.87  19 2.90   9 2.95  36 2.99   7 3.00  40 3.05
                            34 3.14  17 3.31
  33  0.574  0.427  0.465-  35 2.76  39 2.78  50 2.78  20 2.84  28 2.87  41 2.89  49 2.90  30 2.99
                            43 3.00  37 3.05  27 3.26  42 3.46  51 3.54
  34  0.484  0.607  0.409-  29 2.74  39 2.81  40 2.81  24 2.83  21 2.85  17 2.85  47 2.87  28 2.87
                            44 2.89  32 3.14
  35  0.571  0.341  0.547-  33 2.76  37 2.77  45 2.77  12 2.79  13 2.80  18 2.81  20 2.96  49 2.99
                            30 3.14
  36  0.406  0.394  0.391-  46 2.73  27 2.80  19 2.82  43 2.85  25 2.92  37 2.97  32 2.99  39 3.07

[...]

  39  0.499  0.488  0.396-  33 2.78  34 2.81  46 2.81  32 2.84  27 2.84  28 2.85  43 2.86  50 2.90
                            40 3.04  36 3.07  47 3.08  48 3.09
  40  0.440  0.562  0.306-  24 2.67  46 2.73  47 2.76  34 2.81  39 3.04  32 3.05
  41  0.695  0.422  0.437-  50 2.77  51 2.79  30 2.83  42 2.85  45 2.88  33 2.89  49 3.34
  42  0.675  0.534  0.480-  50 2.68  31 2.85  41 2.85  30 2.87  38 2.90  44 2.91  28 3.00  33 3.46

  43  0.523  0.373  0.360-  37 2.75  49 2.80  48 2.84  51 2.85  36 2.85  46 2.86  39 2.86  33 3.00

  44  0.607  0.618  0.416-  38 2.80  47 2.80  50 2.86  28 2.87  34 2.89  29 2.91  42 2.91
  45  0.684  0.324  0.511-  18 2.75  49 2.76  35 2.77  30 2.83  41 2.88
  46  0.449  0.445  0.294-  36 2.73  40 2.73  48 2.78  39 2.81  43 2.86
  47  0.558  0.574  0.316-  40 2.76  50 2.80  48 2.80  44 2.80  34 2.87  39 3.08
  48  0.567  0.458  0.286-  51 2.74  46 2.78  50 2.80  47 2.80  43 2.84  39 3.09
  49  0.603  0.312  0.426-  45 2.76  43 2.80  51 2.81  37 2.88  33 2.90  35 2.99  41 3.34
  50  0.622  0.500  0.384-  42 2.68  41 2.77  33 2.78  47 2.80  48 2.80  44 2.86  39 2.90  51 2.98
                            28 3.25
  51  0.642  0.383  0.337-  48 2.74  41 2.79  49 2.81  43 2.85  50 2.98  33 3.54

  LATTYP: Found a simple cubic cell.
 ALAT       =    23.3084195471

  Lattice vectors:

 A1 = (  23.3084195471,   0.0000000000,   0.0000000000)
 A2 = (   0.0000000000,  23.3084195471,   0.0000000000)
 A3 = (   0.0000000000,   0.0000000000,  23.3084195471)

Analysis of symmetry for initial positions (statically):
 Subroutine PRICEL returns:
 Original cell was already a primitive cell.

 Routine SETGRP: Setting up the symmetry group for a
 simple cubic supercell.

 Subroutine GETGRP returns: Found  1 space group operations
 (whereof  1 operations were pure point group operations)
 out of a pool of 48 trial point group operations.

The static configuration has the point symmetry C_1 .

Analysis of symmetry for dynamics (positions and initial velocities):
 Subroutine PRICEL returns:
 Original cell was already a primitive cell.

 Routine SETGRP: Setting up the symmetry group for a
 simple cubic supercell.

 Subroutine GETGRP returns: Found  1 space group operations
 (whereof  1 operations were pure point group operations)
 out of a pool of 48 trial point group operations.

The dynamic configuration has the point symmetry C_1 .

Analysis of magnetic symmetry:
 Subroutine PRICEL returns:
 Original cell was already a primitive cell.

 Subroutine MAGSYM returns: Found  1 space group operations
 (whereof  1 operations were pure point group operations)
 out of a pool of  1 trial space group operations
 (whereof  1 operations were pure point group operations)
 and found also     1 'primitive' translations

The magnetic configuration has the point symmetry C_1 .

 KPOINTS: Gamma-point only
  k-points in reciprocal lattice
Space group operators:
 irot       det(A)        alpha          n_x          n_y          n_z        tau_x        tau_y        tau_z
    1     1.000000     0.000001     1.000000     0.000000     0.000000     0.000000     0.000000     0.000000

 I would recommend the setting:
   dimension x,y,z NGX =    90 NGY =   90 NGZ =   90
 SYSTEM =  unknown system
 POSCAR =  Al51, -162.5472677 <s> Ag </s>

 Startparameter for this run:
   NWRITE =      2    write-flag & timer
   PREC   = normal    normal or accurate (medium, high low for compatibility)
   ISTART =      0    job   : 0-new  1-cont  2-samecut
   ICHARG =      2    charge: 1-file 2-atom 10-const
   ISPIN  =      2    spin polarized calculation?
   LNONCOLLINEAR =      F non collinear calculations
   LSORBIT =      F    spin-orbit coupling
   INIWAV =      1    electr: 0-lowe 1-rand  2-diag
   LASPH  =      F    aspherical Exc in radial PAW
   METAGGA=      F    non-selfconsistent MetaGGA calc.

 Electronic Relaxation 1
   ENCUT  =  249.8 eV  18.36 Ry    4.29 a.u.  30.04 30.04 30.04*2*pi/ulx,y,z
   ENINI  =  249.8     initial cutoff
   ENAUG  =  412.5 eV  augmentation charge cutoff
   NELM   =     60;   NELMIN=  2; NELMDL= -5     # of ELM steps
   EDIFF  = 0.1E-03   stopping-criterion for ELM
   LREAL  =      F    real-space projection
   NLSPLINE    = F    spline interpolate recip. space projectors
   LCOMPAT=      F    compatible to vasp.4.4
   GGA_COMPAT  = T    GGA compatible to vasp.4.4-vasp.4.6
   LMAXPAW     = -100 max onsite density
   LMAXMIX     =    2 max onsite mixed and CHGCAR
   VOSKOWN=      0    Vosko Wilk Nusair interpolation
   ROPT   =    0.00000
 Ionic relaxation
   EDIFFG = 0.1E-02   stopping-criterion for IOM
   NSW    =   1000    number of steps for IOM
   NBLOCK =      1;   KBLOCK =   1000    inner block; outer block
   IBRION =      2    ionic relax: 0-MD 1-quasi-New 2-CG
   NFREE  =      1    steps in history (QN), initial steepest desc. (CG)
   ISIF   =      2    stress and relaxation
   IWAVPR =     11    prediction:  0-non 1-charg 2-wave 3-comb
   ISYM   =      2    0-nonsym 1-usesym 2-fastsym
   LCORR  =      T    Harris-Foulkes like correction to forces

   POTIM  = 0.1000    time-step for ionic-motion
   TEIN   =    0.0    initial temperature
   TEBEG  =    0.0;   TEEND  =   0.0 temperature during run
   SMASS  =  -3.00    Nose mass-parameter (am)
   estimated Nose-frequenzy (Omega)   =  0.10E-29 period in steps =****** mass=  -0.124E-25a.u.
   SCALEE = 1.0000    scale energy and forces
   NPACO  =    256;   APACO  = 16.0  distance and # of slots for P.C.
   PSTRESS=    0.0 pullay stress

  Mass of Ions in am
   POMASS = 107.87
  Ionic Valenz
   ZVAL   =  11.00
  Atomic Wigner-Seitz radii
  virtual crystal weights
   VCA    =   1.00
   NELECT =     561.0000    total number of electrons
   NUPDOWN=      -1.0000    fix difference up-down

 DOS related values:
   EMIN   =  10.00;   EMAX   =-10.00  energy-range for DOS
   EFERMI =   0.00
   ISMEAR =     0;   SIGMA  =   0.00  broadening in eV -4-tet -1-fermi 0-gaus

 Electronic relaxation 2 (details)
   IALGO  =     38    algorithm
   LDIAG  =      T    sub-space diagonalisation (order eigenvalues)
   LSUBROT=      F    optimize rotation matrix (better conditioning)
   TURBO    =      0    0=normal 1=particle mesh
   IRESTART =      0    0=no restart 2=restart with 2 vectors
   NREBOOT  =      0    no. of reboots
   NMIN     =      0    reboot dimension
   EREF     =   0.00    reference energy to select bands
   IMIX   =      4    mixing-type and parameters
     AMIX     =   0.40;   BMIX     =  1.00
     AMIX_MAG =   1.60;   BMIX_MAG =  1.00
     AMIN     =   0.10
     WC   =   100.;   INIMIX=   1;  MIXPRE=   1;  MAXMIX= -45

 Intra band minimization:
   WEIMIN = 0.0010     energy-eigenvalue tresh-hold
[...]
      31 -82.1598      32 -82.1198      33 -82.2066      34 -82.2893      35 -82.0459
      36 -82.0710      37 -81.9599      38 -82.1840      39 -82.3782      40 -82.2154
      41 -81.9798      42 -82.0519      43 -82.0976      44 -82.0849      45 -81.9840
      46 -82.0332      47 -82.0487      48 -82.0802      49 -82.0516      50 -81.9598
      51 -81.9778

 E-fermi :  -3.2272     XC(G=0):  -1.3636     alpha+bet : -0.9244

[...]

 spin component 2

 k-point     1 :       0.0000    0.0000    0.0000
  band No.  band energies     occupation
      1      -9.6883      1.00000
      2      -9.1445      1.00000
      3      -9.0626      1.00000
      4      -9.0481      1.00000
      5      -9.0207      1.00000
      6      -8.9855      1.00000
      7      -8.9443      1.00000
      8      -8.9150      1.00000
      9      -8.9130      1.00000
     10      -8.8761      1.00000
     11      -8.8563      1.00000
     12      -8.8412      1.00000
     13      -8.8152      1.00000
     14      -8.8046      1.00000
     15      -8.7658      1.00000
     16      -8.7531      1.00000
     17      -8.7349      1.00000
     18      -8.7218      1.00000
     19      -8.7056      1.00000
     20      -8.6912      1.00000
     21      -8.6833      1.00000
     22      -8.6567      1.00000
     23      -8.6530      1.00000
     24      -8.6473      1.00000
     25      -8.6210      1.00000
     26      -8.6038      1.00000
     27      -8.5997      1.00000
     28      -8.5747      1.00000
     29      -8.5693      1.00000
     30      -8.5434      1.00000
     31      -8.5365      1.00000
     32      -8.5161      1.00000
     33      -8.5091      1.00000
     34      -8.4999      1.00000
     35      -8.4653      1.00000
     36      -8.4578      1.00000
     37      -8.4522      1.00000
     38      -8.4461      1.00000
     39      -8.4285      1.00000
     40      -8.4137      1.00000
     41      -8.4062      1.00000
     42      -8.3833      1.00000
     43      -8.3704      1.00000
     44      -8.3609      1.00000
     45      -8.3531      1.00000
     46      -8.3428      1.00000
     47      -8.3293      1.00000
     48      -8.3204      1.00000
     49      -8.3007      1.00000
     50      -8.2936      1.00000
     51      -8.2779      1.00000
     52      -8.2653      1.00000
     53      -8.2541      1.00000
     54      -8.2310      1.00000
     55      -8.2296      1.00000
     56      -8.2262      1.00000
     57      -8.2215      1.00000
     58      -8.1956      1.00000
     59      -8.1857      1.00000
     60      -8.1771      1.00000
[...]
    350       1.3499      0.00000
    351       1.3542      0.00000
    352       1.3701      0.00000
    353       1.3902      0.00000
    354       1.4153      0.00000
    355       1.4562      0.00000
    356       1.4636      0.00000
    357       1.4774      0.00000
    358       1.4942      0.00000
    359       1.5001      0.00000
    360       1.5132      0.00000
    361       1.5480      0.00000
    362       1.5906      0.00000
    363       1.6243      0.00000
    364       1.6447      0.00000

[...]

 soft charge-density along one line, spin component           2
         0         1         2         3         4         5         6         7         8         9
 total charge-density along one line

------------------------ aborting loop because EDIFF is reached ----------------------------------------

  FORCE on cell =-STRESS in cart. coord.  units (eV):
  Direction    XX          YY          ZZ          XY          YZ          ZX
  Alpha Z   174.70931   174.70931   174.70931
  Ewald   40287.67126 56208.14767 55387.69597-12955.63134  7248.14185  3695.34267
  Hartree 57745.18644 73049.21649 71922.61874-12043.76399  6853.55853  3359.47060
  E(xc)   -2958.74856 -2958.20269 -2957.19273    -1.54081     0.36440     0.72500
  Local  ************************************ 24993.19367-14104.12830 -7048.37274
  n-local  -522.49163  -519.88926  -523.17146    -2.49040     2.20355    -0.39488
  augment  4688.69967  4687.69144  4683.60647     3.03197    -0.09716    -1.94221
  Kinetic  6984.15260  6983.27359  6970.72977     6.70844     0.36646    -5.30820
  Fock        0.00000     0.00000     0.00000     0.00000     0.00000     0.00000
  Total     -17.13544   -16.04841   -16.74932    -0.49246     0.40932    -0.47976
  in kB      -2.16804    -2.03051    -2.11919    -0.06231     0.05179    -0.06070

 VOLUME and BASIS-vectors are now :
  energy-cutoff  :      249.84
  volume of cell :    12663.05
      direct lattice vectors                 reciprocal lattice vectors
    23.308419547  0.000000000  0.000000000     0.042902952  0.000000000  0.000000000
     0.000000000 23.308419547  0.000000000     0.000000000  0.042902952  0.000000000
     0.000000000  0.000000000 23.308419547     0.000000000  0.000000000  0.042902952

  length of vectors
    23.308419547 23.308419547 23.308419547     0.042902952  0.042902952  0.042902952

 FORCES acting on ions
    electron-ion (+dipol)            ewald-force                    non-local-force                 convergence-correction
   0.115E+04 0.409E+03 -.141E+04   -.115E+04 -.406E+03 0.141E+04   -.375E+01 -.296E+01 0.322E+01   0.641E-02 0.134E-01 -.144E-01
   0.140E+04 -.515E+03 -.102E+04   -.139E+04 0.515E+03 0.102E+04   -.273E+01 -.807E-02 0.140E+01   -.385E-02 0.198E-03 0.125E-02
   0.212E+03 0.611E+03 -.160E+04   -.211E+03 -.609E+03 0.160E+04   -.131E+01 -.166E+01 0.206E+01   -.953E-02 -.114E-01 -.232E-01
   0.128E+04 -.123E+04 -.379E+03   -.128E+04 0.122E+04 0.378E+03   -.299E+01 0.264E+01 0.124E+00   -.139E-02 0.578E-02 0.111E-01
   0.137E+04 0.887E+03 -.805E+03   -.136E+04 -.885E+03 0.803E+03   -.277E+01 -.152E+01 0.158E+01   -.987E-02 -.828E-02 0.192E-02
   0.465E+03 -.355E+03 -.166E+04   -.465E+03 0.355E+03 0.166E+04   -.161E+00 0.644E+00 0.206E+01   -.748E-02 -.866E-03 0.200E-02
   0.164E+04 -.661E+03 0.354E+03   -.164E+04 0.660E+03 -.353E+03   -.345E+01 0.478E+00 -.688E+00   0.182E-02 0.121E-01 0.272E-04
   -.103E+04 0.393E+03 -.140E+04   0.103E+04 -.392E+03 0.140E+04   0.191E+01 -.751E+00 0.293E+01   0.486E-02 0.154E-02 0.265E-02
   0.169E+04 0.824E+01 -.255E+03   -.169E+04 -.818E+01 0.253E+03   -.206E+01 -.571E-01 0.153E+01   -.166E-02 0.662E-02 0.492E-02
   -.267E+03 -.104E+04 -.148E+04   0.266E+03 0.103E+04 0.147E+04   0.112E+01 0.310E+01 0.369E+01   0.234E-02 -.152E-02 0.158E-01
   0.523E+03 -.125E+04 -.103E+04   -.523E+03 0.125E+04 0.103E+04   -.365E+00 0.702E+00 0.895E+00   -.110E-01 0.115E-01 0.280E-01
   0.528E+03 0.133E+04 -.776E+03   -.527E+03 -.133E+04 0.775E+03   -.940E+00 0.539E+00 0.914E+00   0.276E-01 -.893E-03 -.280E-01
   -.451E+02 0.125E+04 -.130E+04   0.452E+02 -.125E+04 0.129E+04   -.991E-01 -.268E+01 0.376E+01   0.345E-02 -.570E-02 -.925E-02
   0.576E+03 0.119E+03 -.704E+03   -.576E+03 -.119E+03 0.703E+03   -.666E+00 -.158E+00 0.101E+01   -.892E-02 0.111E-01 -.860E-02
   -.684E+03 -.151E+03 -.161E+04   0.683E+03 0.151E+03 0.160E+04   0.784E+00 0.726E-01 0.249E+01   -.161E-01 -.111E-01 -.759E-02
   0.197E+03 -.174E+04 -.639E+02   -.197E+03 0.174E+04 0.642E+02   -.260E-01 0.460E+01 -.377E+00   -.997E-03 -.313E-02 0.134E-01
   0.632E+03 -.691E+03 -.251E+02   -.632E+03 0.689E+03 0.252E+02   -.406E+00 0.149E+01 -.389E-01   -.587E-02 0.278E-01 0.739E-02
   -.106E+04 0.106E+04 -.912E+03   0.105E+04 -.106E+04 0.908E+03   0.238E+01 -.257E+01 0.347E+01   0.578E-02 -.179E-02 0.136E-02
   0.171E+04 0.624E+03 0.391E+03   -.171E+04 -.622E+03 -.390E+03   -.425E+01 -.136E+01 -.699E+00   0.552E-02 0.869E-02 0.310E-02
   -.340E+03 0.374E+03 -.590E+03   0.339E+03 -.374E+03 0.588E+03   0.295E+00 -.796E-01 0.107E+01   0.420E-02 0.147E-01 0.129E-02
   0.575E+03 -.150E+04 0.746E+03   -.573E+03 0.150E+04 -.744E+03   -.140E+01 0.276E+01 -.215E+01   -.449E-02 0.291E-01 -.386E-02
   -.649E+03 -.161E+04 -.402E+03   0.647E+03 0.161E+04 0.401E+03   0.143E+01 0.314E+01 0.138E+01   0.210E-02 0.127E-02 0.940E-02
   -.297E+03 -.617E+03 -.612E+03   0.296E+03 0.616E+03 0.611E+03   0.106E+01 0.921E+00 0.905E+00   0.623E-02 0.199E-01 -.620E-02
   0.104E+04 -.836E+03 0.122E+04   -.103E+04 0.834E+03 -.121E+04   -.253E+01 0.238E+01 -.348E+01   -.207E-02 -.969E-03 0.399E-02
   0.113E+04 0.151E+04 -.616E+02   -.112E+04 -.150E+04 0.613E+02   -.326E+01 -.415E+01 0.380E+00   -.142E-01 -.147E-01 -.459E-02
   -.134E+04 -.940E+03 -.874E+03   0.133E+04 0.938E+03 0.872E+03   0.356E+01 0.231E+01 0.235E+01   -.467E-02 -.108E-01 0.664E-02
   0.608E+03 0.527E+03 0.114E+03   -.607E+03 -.526E+03 -.115E+03   -.106E+01 -.993E+00 0.803E+00   0.362E-02 -.166E-01 0.480E-02
   -.249E+03 -.312E+03 0.217E+03   0.248E+03 0.311E+03 -.217E+03   0.933E+00 0.728E+00 -.988E-01   -.218E-01 0.128E-01 -.433E-02
   -.456E+03 -.146E+04 0.503E+03   0.455E+03 0.145E+04 -.503E+03   0.113E+01 0.178E+01 0.105E-01   0.309E-02 0.832E-02 -.556E-02
   -.147E+04 0.352E+03 -.370E+03   0.147E+04 -.351E+03 0.369E+03   0.187E+01 -.104E+01 0.663E+00   -.197E-01 0.683E-02 0.629E-03
   -.152E+04 -.280E+03 -.640E+03   0.152E+04 0.280E+03 0.640E+03   0.125E+01 -.957E-01 0.107E+00   0.876E-02 -.374E-02 -.299E-03
   0.123E+04 -.251E+02 0.809E+03   -.123E+04 0.248E+02 -.809E+03   -.207E+00 0.321E+00 -.504E+00   0.297E-01 0.112E-01 0.189E-01
   -.476E+03 0.543E+03 0.358E+03   0.475E+03 -.542E+03 -.357E+03   0.106E+01 -.898E+00 -.154E+01   -.179E-01 -.445E-02 0.613E-02
   0.892E+02 -.995E+03 0.105E+04   -.885E+02 0.995E+03 -.105E+04   -.782E+00 -.163E+00 -.102E+01   0.604E-02 0.121E-01 -.116E-02
   -.323E+03 0.152E+04 -.352E+03   0.321E+03 -.152E+04 0.351E+03   0.174E+01 -.620E+00 0.529E+00   0.821E-02 -.119E-01 -.763E-02
   0.104E+04 0.105E+04 0.935E+03   -.104E+04 -.105E+04 -.933E+03   -.182E+01 -.309E+00 -.157E+01   0.139E-01 -.589E-03 0.751E-02
   0.302E+03 0.167E+04 0.279E+03   -.301E+03 -.167E+04 -.279E+03   -.955E+00 -.154E+01 -.271E+00   0.512E-02 -.368E-01 -.519E-02
   -.137E+04 -.110E+04 0.141E+03   0.137E+04 0.110E+04 -.140E+03   0.262E+01 0.217E+01 -.980E+00   0.653E-02 0.177E-02 -.970E-02
   0.112E+03 0.122E+03 0.952E+03   -.113E+03 -.122E+03 -.950E+03   0.871E+00 -.325E+00 -.200E+01   0.572E-02 0.226E-02 -.689E-02
   0.697E+03 -.327E+03 0.160E+04   -.696E+03 0.327E+03 -.159E+04   -.132E+01 -.347E+00 -.432E+01   -.808E-02 -.454E-02 -.326E-03
   -.163E+04 0.367E+03 0.555E+03   0.163E+04 -.366E+03 -.554E+03   0.313E+01 -.675E+00 -.899E+00   -.101E-01 -.797E-02 0.296E-02
   -.154E+04 -.391E+03 0.283E+03   0.154E+04 0.392E+03 -.284E+03   0.594E+00 -.286E+00 0.106E+01   -.191E-01 -.108E-01 -.149E-02
   0.291E+02 0.125E+04 0.115E+04   -.294E+02 -.125E+04 -.115E+04   0.274E+00 -.970E+00 -.150E+01   0.587E-02 -.784E-03 0.158E-01
   -.105E+04 -.110E+04 0.907E+03   0.105E+04 0.109E+04 -.906E+03   0.936E+00 0.266E+01 -.159E+01   0.100E-01 -.460E-02 -.976E-02
   -.131E+04 0.117E+04 0.236E+02   0.131E+04 -.116E+04 -.225E+02   0.395E+01 -.326E+01 -.112E+01   0.709E-02 0.131E-02 0.210E-02
   0.703E+03 0.600E+03 0.153E+04   -.700E+03 -.599E+03 -.152E+04   -.321E+01 -.884E+00 -.400E+01   0.898E-02 0.156E-03 0.896E-02
   -.484E+03 -.828E+03 0.154E+04   0.484E+03 0.825E+03 -.154E+04   0.154E+00 0.272E+01 -.339E+01   -.317E-02 -.982E-02 -.316E-02
   -.410E+03 0.214E+03 0.169E+04   0.410E+03 -.214E+03 -.169E+04   -.105E+00 -.144E+00 -.384E+01   0.431E-02 -.115E-01 -.746E-02
   -.647E+03 0.152E+04 0.615E+03   0.645E+03 -.151E+04 -.614E+03   0.153E+01 -.264E+01 -.668E+00   0.130E-01 0.736E-03 -.470E-02
   -.125E+04 -.280E+03 0.111E+04   0.125E+04 0.281E+03 -.111E+04   0.649E+00 -.275E+00 -.744E+00   0.145E-02 -.120E-01 -.827E-02
   -.102E+04 0.763E+03 0.126E+04   0.102E+04 -.761E+03 -.126E+04   0.303E+01 -.199E+01 -.310E+01   0.287E-02 -.522E-02 -.779E-02
   0.421E+01 -.660E+00 0.181E+00   0.296E-11 -.909E-12 0.477E-11   -.436E+01 0.746E+00 -.196E+00   0.126E-01 0.887E-02 -.730E-02

 POSITION                                       TOTAL-FORCE (eV/Angst)
      8.87882     11.48113     16.01892        -0.001889      0.001815     -0.007222
      8.49202     14.00273     14.71381        -0.002110      0.003724      0.002400
     11.72551     10.74803     16.06000        -0.010322     -0.007946     -0.006976
      8.25139     16.30671     13.08035        -0.003277      0.007108      0.019492
      8.57362      9.90481     13.66849         0.012795     -0.002229     -0.000324
     10.79150     13.48961     16.35176        -0.003183     -0.003912     -0.002936
      7.44957     14.66276     10.93324         0.005830      0.005513      0.002506
     14.77075     10.35552     15.71275        -0.002921     -0.004402     -0.000374
      7.87803     12.37655     12.49192         0.000181      0.009675      0.004280
     12.66479     15.56149     16.52029         0.000814      0.002014      0.003507
     10.47007     15.98394     14.83132        -0.002474      0.008175      0.013982
     11.07236      8.58218     13.51069        -0.001886     -0.001098     -0.005797
     13.01081      8.28321     15.40332         0.001447     -0.001194     -0.011026
     10.46504     12.05575     13.85273        -0.003903      0.009846     -0.003948
     13.63466     12.86447     16.35229        -0.009842     -0.008815     -0.005070
     10.69015     17.68164     12.68858        -0.000331     -0.004197      0.009593
     10.00734     14.28264     12.19778         0.003881      0.014851     -0.001287
     15.74241      7.79477     14.69706         0.002711      0.000463     -0.002116
      7.58624     10.14927     10.86481         0.005508      0.000317     -0.001225
     12.96854     10.79871     13.53394         0.002190      0.008806     -0.005046
      9.60962     16.45512     10.42022         0.002036      0.014229     -0.000854
     13.12637     16.79747     13.89429        -0.001747     -0.001822      0.005931
     12.50796     14.02129     14.00780        -0.008933      0.004428     -0.005171
      8.53701     14.77697      8.35214         0.004255      0.001035      0.003079
      9.01811      7.92585     11.71943         0.007393     -0.008649      0.000810
     15.02299     15.07702     15.10288        -0.004629     -0.000977     -0.001575
     10.42384     10.53593     11.47757         0.001327     -0.002310      0.001868
     12.28076     12.69987     11.49371        -0.010548      0.009556     -0.002895
     12.27997     15.78701     11.38353         0.008319     -0.001854     -0.001086
     15.60093      9.95104     12.93196        -0.002104     -0.011307     -0.002492
     15.26193     12.53736     14.02441         0.002354      0.006634     -0.002533
      8.93515     12.38927      9.82090         0.024619      0.008973      0.010280
     13.35449     10.01657     10.84463        -0.007888     -0.009873      0.005363
     11.12090     14.26857      9.34106        -0.000243      0.011448     -0.001551
     13.66202      7.71382     12.76194         0.003611     -0.009102     -0.003073
      9.64202      9.05783      9.23261         0.005041     -0.001970     -0.002327
     11.61947      7.58816     10.85808        -0.003223     -0.021311     -0.000846
     14.70241     14.75223     12.36416        -0.004233      0.002186      0.003775
     11.61908     11.32664      9.00089        -0.001477      0.004011     -0.005469
     10.07584     12.71918      7.18719        -0.001899      0.000972      0.006163
     16.20076      9.74506     10.17811        -0.008682     -0.001688     -0.000039
     15.30941     12.21447     11.24034        -0.009147     -0.005524     -0.000775
     12.25543      8.51800      8.30727         0.000061      0.001587     -0.002433
     13.98390     14.15066      9.72044        -0.005245      0.000579     -0.001818
     16.35048      7.47314     11.94718         0.006574      0.001531      0.002876
     10.39597      9.92727      6.71819         0.000878     -0.003676      0.008376
     12.89507     13.37237      7.28756        -0.000953     -0.008666     -0.002869
     13.05936     10.67877      6.59000         0.005613     -0.002284     -0.002893
     14.31134      7.46994     10.00723         0.001466     -0.003610      0.000265
     14.82274     11.71950      8.54953        -0.002367     -0.005981     -0.003457
     14.95747      9.04482      7.79378         0.006550     -0.005078     -0.007041
    total drift:                               -0.135115      0.094933     -0.022561

  FREE ENERGIE OF THE ION-ELECTRON SYSTEM (eV)
  free  energy   TOTEN  =      -111.55036002 eV

  energy  without entropy=     -111.55036002  energy(sigma->0) =     -111.55036002

 d Force = 0.9310985E-04[ 0.124E-03, 0.618E-04]  d Energy = 0.1212103E-03-0.281E-04
 d Force = 0.2457458E+01[ 0.246E+01, 0.246E+01]  d Ewald  = 0.2457458E+01-0.153E-07

 reached required accuracy - stopping structural energy minimisation