 vasp.5.3.5 31Mar14 (build Feb 01 2018 12:10:03) gamma-only

 executed on             LinuxIFC date 2019.03.25  02:38:17

 INCAR:
 POTCAR:    PAW_PBE Ag 02Apr2005
 POTCAR:    PAW_PBE Ag 02Apr2005
   VRHFIN =Ag : s1 d10

   TITEL  = PAW_PBE Ag 02Apr2005
   POMASS =  107.868; ZVAL   =   11.000    mass and valenz
   ENMAX  =  249.844; ENMIN  =  187.383 eV

  PAW_PBE Ag 02Apr2005                  :

 POSCAR: Ti51, -342.36039385 <s> Ag </s>
  positions in direct lattice
 exchange correlation table for  LEXCH =        8
   RHO(1)=    0.500       N(1)  =     2000
   RHO(2)=  100.500       N(2)  =     4000

 ion  position               nearest neighbor table
   1  0.720  0.555  0.388-   2 2.50   7 2.58   9 2.74  10 2.76   5 2.79   3 2.82
   2  0.725  0.557  0.496-   1 2.50  11 2.66  10 2.79   8 2.86   3 2.91   5 2.93
   3  0.687  0.662  0.437-  10 2.53   7 2.73   1 2.82   2 2.91   8 2.92  14 2.97  16 3.36
   4  0.701  0.405  0.527-   5 2.63  12 2.67  18 2.73  13 2.82  11 2.82   6 2.83
   5  0.659  0.464  0.439-   4 2.63  10 2.78   6 2.78   9 2.79   1 2.79  18 2.84   2 2.93  19 2.95
                            11 3.10
   6  0.635  0.347  0.442-  12 2.65  18 2.70  22 2.77   5 2.78   4 2.83  15 3.02
   7  0.648  0.620  0.334-   1 2.58  21 2.58   3 2.73   9 2.77  16 2.78  10 2.83
   8  0.649  0.635  0.555-  14 2.51  23 2.74   2 2.86  20 2.89   3 2.92  11 2.93  10 2.97  27 3.12

   9  0.634  0.501  0.327-  21 2.65  19 2.68   1 2.74   7 2.77   5 2.79  10 3.24  24 3.41
  10  0.618  0.577  0.444-   3 2.53  19 2.54  23 2.74   1 2.76   5 2.78   2 2.79   7 2.83  16 2.83
                             8 2.97  14 2.97   9 3.24  11 3.29  21 3.56  36 3.59
  11  0.647  0.508  0.565-   2 2.66  23 2.75  20 2.79  18 2.80   4 2.82  13 2.86  17 2.88   8 2.93
                             5 3.10  10 3.29
  12  0.638  0.312  0.551-  25 2.57   6 2.65   4 2.67  22 2.76  18 2.78  13 2.81
  13  0.637  0.404  0.631-  17 2.77  25 2.78  12 2.81   4 2.82  18 2.83  11 2.86
  14  0.575  0.688  0.495-   8 2.51  16 2.60  33 2.69  27 2.78  23 2.94   3 2.97  10 2.97  36 3.57

  15  0.518  0.395  0.409-  19 2.68  22 2.80  28 2.85  35 2.88  34 2.96  26 3.00   6 3.02  18 3.05
                            24 3.21
  16  0.550  0.663  0.388-  14 2.60  21 2.77   7 2.78  10 2.83  36 2.87   3 3.36  29 3.61
  17  0.541  0.474  0.622-  39 2.74  13 2.77  20 2.77  32 2.78  18 2.85  37 2.87  11 2.88  23 2.93
                            26 3.08  31 3.25  25 3.36  30 3.37  38 3.58
  18  0.583  0.415  0.522-   6 2.70   4 2.73  22 2.77  12 2.78  26 2.80  11 2.80  13 2.83   5 2.84
                            17 2.85  25 2.97  15 3.05  31 3.13
  19  0.545  0.507  0.402-  10 2.54  28 2.64  15 2.68   9 2.68  21 2.71  26 2.83  24 2.91  36 2.92
                             5 2.95  29 3.53  23 3.55
  20  0.598  0.576  0.652-  30 2.65  17 2.77  11 2.79  23 2.80   8 2.89  27 2.95  37 3.56
  21  0.549  0.575  0.306-  29 2.54   7 2.58   9 2.65  19 2.71  16 2.77  24 2.82  10 3.56
  22  0.533  0.310  0.494-  25 2.74  12 2.76  18 2.77   6 2.77  15 2.80  31 2.82  35 3.52
  23  0.549  0.572  0.541-  38 2.59  10 2.74   8 2.74  11 2.75  20 2.80  26 2.83  27 2.84  17 2.93
                            14 2.94  36 3.03  33 3.50  30 3.52  19 3.55
  24  0.494  0.467  0.293-  28 2.69  21 2.82  40 2.83  29 2.90  19 2.91  34 2.93  15 3.21   9 3.41

  25  0.545  0.329  0.610-  12 2.57  31 2.60  22 2.74  13 2.78  32 2.78  18 2.97  17 3.36
  26  0.482  0.478  0.502-  31 2.69  28 2.78  18 2.80  23 2.83  19 2.83  38 2.92  15 3.00  41 3.01
                            36 3.02  17 3.08  35 3.12  39 3.24  43 3.49
  27  0.531  0.674  0.606-  30 2.61  33 2.66  14 2.78  23 2.84  20 2.95  42 3.03   8 3.12  38 3.18

  28  0.433  0.483  0.392-  34 2.63  19 2.64  40 2.64  46 2.69  24 2.69  44 2.75  26 2.78  29 2.81
                            15 2.85  41 2.89  35 2.90  36 2.92
  29  0.440  0.578  0.317-  21 2.54  44 2.59  40 2.68  28 2.81  24 2.90  36 3.04  19 3.53  16 3.61

  30  0.488  0.598  0.678-  37 2.54  27 2.61  20 2.65  49 2.70  42 2.83  38 2.84  39 3.37  17 3.37
                            23 3.52
  31  0.458  0.379  0.560-  25 2.60  26 2.69  35 2.74  45 2.76  22 2.82  39 2.89  43 2.95  18 3.13
                            32 3.16  17 3.25
  32  0.486  0.394  0.693-  37 2.63  48 2.75  25 2.78  17 2.78  39 2.82  45 2.84  31 3.16
  33  0.461  0.692  0.516-  47 2.59  27 2.66  14 2.69  36 2.82  42 2.89  38 2.91  23 3.50
  34  0.410  0.384  0.340-  28 2.63  35 2.65  40 2.72  46 2.80  24 2.93  15 2.96
  35  0.403  0.379  0.455-  34 2.65  31 2.74  46 2.75  15 2.88  43 2.90  28 2.90  26 3.12  22 3.52

  36  0.463  0.594  0.445-  33 2.82  16 2.87  38 2.88  28 2.92  19 2.92  41 2.95  47 2.97  26 3.02
                            23 3.03  29 3.04  44 3.06  14 3.57  10 3.59
  37  0.488  0.502  0.730-  30 2.54  32 2.63  48 2.66  39 2.83  17 2.87  49 2.91  20 3.56
  38  0.441  0.578  0.566-  42 2.54  23 2.59  47 2.67  39 2.79  50 2.82  30 2.84  41 2.87  36 2.88
                            33 2.91  26 2.92  27 3.18  49 3.45  17 3.58
  39  0.423  0.477  0.629-  45 2.70  51 2.70  49 2.73  17 2.74  48 2.75  43 2.77  38 2.79  32 2.82
                            37 2.83  31 2.89  50 3.13  26 3.24  30 3.37
  40  0.373  0.486  0.295-  28 2.64  29 2.68  34 2.72  46 2.78  44 2.78  24 2.83
  41  0.362  0.527  0.485-  44 2.58  43 2.58  47 2.69  50 2.80  38 2.87  46 2.89  28 2.89  36 2.95
                            26 3.01
  42  0.401  0.664  0.623-  38 2.54  30 2.83  47 2.85  33 2.89  27 3.03  49 3.05  50 3.06
  43  0.344  0.437  0.549-  41 2.58  39 2.77  45 2.79  51 2.80  35 2.90  31 2.95  50 3.11  26 3.49
                            46 3.53
  44  0.350  0.567  0.382-  41 2.58  29 2.59  28 2.75  40 2.78  46 2.88  36 3.06  47 3.39
  45  0.375  0.372  0.646-  39 2.70  51 2.71  48 2.73  31 2.76  43 2.79  32 2.84
  46  0.323  0.446  0.398-  28 2.69  35 2.75  40 2.78  34 2.80  44 2.88  41 2.89  43 3.53
  47  0.362  0.640  0.509-  33 2.59  38 2.67  41 2.69  50 2.84  42 2.85  36 2.97  44 3.39
  48  0.388  0.444  0.738-  51 2.60  37 2.66  45 2.73  39 2.75  32 2.75  49 2.83
  49  0.380  0.560  0.702-  30 2.70  39 2.73  50 2.81  48 2.83  51 2.83  37 2.91  42 3.05  38 3.45

  50  0.323  0.562  0.594-  51 2.67  41 2.80  49 2.81  38 2.82  47 2.84  42 3.06  43 3.11  39 3.13

  51  0.311  0.468  0.661-  48 2.60  50 2.67  39 2.70  45 2.71  43 2.80  49 2.83

  LATTYP: Found a simple cubic cell.
 ALAT       =    23.1041005865

  Lattice vectors:

 A1 = (  23.1041005865,   0.0000000000,   0.0000000000)
 A2 = (   0.0000000000,  23.1041005865,   0.0000000000)
 A3 = (   0.0000000000,   0.0000000000,  23.1041005865)

Analysis of symmetry for initial positions (statically):
 Subroutine PRICEL returns:
 Original cell was already a primitive cell.

 Routine SETGRP: Setting up the symmetry group for a
 simple cubic supercell.

 Subroutine GETGRP returns: Found  1 space group operations
 (whereof  1 operations were pure point group operations)
 out of a pool of 48 trial point group operations.

The static configuration has the point symmetry C_1 .

Analysis of symmetry for dynamics (positions and initial velocities):
 Subroutine PRICEL returns:
 Original cell was already a primitive cell.

 Routine SETGRP: Setting up the symmetry group for a
 simple cubic supercell.

 Subroutine GETGRP returns: Found  1 space group operations
 (whereof  1 operations were pure point group operations)
 out of a pool of 48 trial point group operations.

The dynamic configuration has the point symmetry C_1 .

Analysis of magnetic symmetry:
 Subroutine PRICEL returns:
 Original cell was already a primitive cell.

 Subroutine MAGSYM returns: Found  1 space group operations
 (whereof  1 operations were pure point group operations)
 out of a pool of  1 trial space group operations
 (whereof  1 operations were pure point group operations)
 and found also     1 'primitive' translations

The magnetic configuration has the point symmetry C_1 .

 KPOINTS: Gamma-point only
  k-points in reciprocal lattice
Space group operators:
 irot       det(A)        alpha          n_x          n_y          n_z        tau_x        tau_y        tau_z
    1     1.000000     0.000000     1.000000     0.000000     0.000000     0.000000     0.000000     0.000000

 I would recommend the setting:
   dimension x,y,z NGX =    89 NGY =   89 NGZ =   89
 SYSTEM =  unknown system
 POSCAR =  Ti51, -342.36039385 <s> Ag </s>

 Startparameter for this run:
   NWRITE =      2    write-flag & timer
   PREC   = normal    normal or accurate (medium, high low for compatibility)
   ISTART =      0    job   : 0-new  1-cont  2-samecut
   ICHARG =      2    charge: 1-file 2-atom 10-const
   ISPIN  =      2    spin polarized calculation?
   LNONCOLLINEAR =      F non collinear calculations
   LSORBIT =      F    spin-orbit coupling
   INIWAV =      1    electr: 0-lowe 1-rand  2-diag
   LASPH  =      F    aspherical Exc in radial PAW
   METAGGA=      F    non-selfconsistent MetaGGA calc.

 Electronic Relaxation 1
   ENCUT  =  249.8 eV  18.36 Ry    4.29 a.u.  29.78 29.78 29.78*2*pi/ulx,y,z
   ENINI  =  249.8     initial cutoff
   ENAUG  =  412.5 eV  augmentation charge cutoff
   NELM   =     60;   NELMIN=  2; NELMDL= -5     # of ELM steps
   EDIFF  = 0.1E-03   stopping-criterion for ELM
   LREAL  =      F    real-space projection
   NLSPLINE    = F    spline interpolate recip. space projectors
   LCOMPAT=      F    compatible to vasp.4.4
   GGA_COMPAT  = T    GGA compatible to vasp.4.4-vasp.4.6
   LMAXPAW     = -100 max onsite density
   LMAXMIX     =    2 max onsite mixed and CHGCAR
   VOSKOWN=      0    Vosko Wilk Nusair interpolation
   ROPT   =    0.00000
 Ionic relaxation
   EDIFFG = 0.1E-02   stopping-criterion for IOM
   NSW    =   1000    number of steps for IOM
   NBLOCK =      1;   KBLOCK =   1000    inner block; outer block
   IBRION =      2    ionic relax: 0-MD 1-quasi-New 2-CG
   NFREE  =      1    steps in history (QN), initial steepest desc. (CG)
   ISIF   =      2    stress and relaxation
   IWAVPR =     11    prediction:  0-non 1-charg 2-wave 3-comb
   ISYM   =      2    0-nonsym 1-usesym 2-fastsym
   LCORR  =      T    Harris-Foulkes like correction to forces

   POTIM  = 0.1000    time-step for ionic-motion
   TEIN   =    0.0    initial temperature
   TEBEG  =    0.0;   TEEND  =   0.0 temperature during run
   SMASS  =  -3.00    Nose mass-parameter (am)
   estimated Nose-frequenzy (Omega)   =  0.10E-29 period in steps =****** mass=  -0.122E-25a.u.
   SCALEE = 1.0000    scale energy and forces
   NPACO  =    256;   APACO  = 16.0  distance and # of slots for P.C.
   PSTRESS=    0.0 pullay stress

  Mass of Ions in am
   POMASS = 107.87
  Ionic Valenz
   ZVAL   =  11.00
  Atomic Wigner-Seitz radii
  virtual crystal weights
   VCA    =   1.00
   NELECT =     561.0000    total number of electrons
   NUPDOWN=      -1.0000    fix difference up-down

 DOS related values:
   EMIN   =  10.00;   EMAX   =-10.00  energy-range for DOS
   EFERMI =   0.00
   ISMEAR =     0;   SIGMA  =   0.00  broadening in eV -4-tet -1-fermi 0-gaus

 Electronic relaxation 2 (details)
   IALGO  =     38    algorithm
   LDIAG  =      T    sub-space diagonalisation (order eigenvalues)
[...]
      31 -82.0390      32 -81.9308      33 -81.9484      34 -82.0119      35 -82.0188
      36 -82.3739      37 -82.0398      38 -82.3124      39 -82.3450      40 -82.0095
      41 -82.1822      42 -82.0344      43 -81.8961      44 -82.0442      45 -81.9465
      46 -81.8696      47 -82.0813      48 -81.9318      49 -82.0846      50 -81.9969
      51 -81.8388

 E-fermi :  -3.1367     XC(G=0):  -1.3974     alpha+bet : -0.9492

[...]

 spin component 2

 k-point     1 :       0.0000    0.0000    0.0000
  band No.  band energies     occupation
      1      -9.7182      1.00000
      2      -9.2029      1.00000
      3      -9.1658      1.00000
      4      -9.1177      1.00000
      5      -9.0916      1.00000
      6      -9.0594      1.00000
      7      -8.9788      1.00000
      8      -8.9394      1.00000
      9      -8.9261      1.00000
     10      -8.8949      1.00000
     11      -8.8761      1.00000
     12      -8.8551      1.00000
     13      -8.8328      1.00000
     14      -8.7991      1.00000
     15      -8.7768      1.00000
     16      -8.7713      1.00000
     17      -8.7499      1.00000
     18      -8.7331      1.00000
     19      -8.7066      1.00000
     20      -8.6830      1.00000
     21      -8.6792      1.00000
     22      -8.6561      1.00000
     23      -8.6408      1.00000
     24      -8.6009      1.00000
     25      -8.5914      1.00000
     26      -8.5849      1.00000
     27      -8.5753      1.00000
     28      -8.5390      1.00000
     29      -8.5351      1.00000
     30      -8.5187      1.00000
     31      -8.4858      1.00000
     32      -8.4704      1.00000
     33      -8.4531      1.00000
     34      -8.4447      1.00000
     35      -8.4004      1.00000
     36      -8.3885      1.00000
     37      -8.3742      1.00000
     38      -8.3680      1.00000
     39      -8.3586      1.00000
     40      -8.3375      1.00000
     41      -8.3293      1.00000
     42      -8.3190      1.00000
     43      -8.3051      1.00000
     44      -8.2922      1.00000
     45      -8.2847      1.00000
     46      -8.2574      1.00000
     47      -8.2428      1.00000
     48      -8.2308      1.00000
     49      -8.2285      1.00000
     50      -8.2147      1.00000
     51      -8.1938      1.00000
     52      -8.1840      1.00000
     53      -8.1791      1.00000
     54      -8.1623      1.00000
     55      -8.1418      1.00000
     56      -8.1395      1.00000
     57      -8.1272      1.00000
     58      -8.1065      1.00000
     59      -8.0858      1.00000
     60      -8.0844      1.00000
[...]
    350       1.3319      0.00000
    351       1.3634      0.00000
    352       1.4095      0.00000
    353       1.4159      0.00000
    354       1.4377      0.00000
    355       1.4527      0.00000
    356       1.4633      0.00000
    357       1.4913      0.00000
    358       1.5285      0.00000
    359       1.5464      0.00000
    360       1.5706      0.00000
    361       1.5750      0.00000
    362       1.6211      0.00000
    363       1.6292      0.00000
    364       1.6778      0.00000

[...]

 soft charge-density along one line, spin component           2
         0         1         2         3         4         5         6         7         8         9
 total charge-density along one line

------------------------ aborting loop because EDIFF is reached ----------------------------------------

  FORCE on cell =-STRESS in cart. coord.  units (eV):
  Direction    XX          YY          ZZ          XY          YZ          ZX
  Alpha Z   179.38550   179.38550   179.38550
  Ewald   59074.91401 39312.17659 51395.39984  3476.14329 -3683.37278-10009.51057
  Hartree 75610.08308 56776.30758 68268.52021  3253.61994 -3455.56193 -9401.35664
  E(xc)   -2957.41243 -2958.69515 -2957.78399     0.32795    -0.33463    -0.83200
  Local  ************************************ -6730.71071  7140.63159 19408.94561
  n-local  -527.56153  -528.56233  -529.28580     1.30221    -1.47788    -1.91648
  augment  4685.66495  4689.11029  4686.45800    -0.26638     0.09834     1.48449
  Kinetic  6977.59870  6985.51528  6978.54988    -0.27171    -0.14883     2.95349
  Fock        0.00000     0.00000     0.00000     0.00000     0.00000     0.00000
  Total     -17.24387   -17.19778   -18.03483     0.14459    -0.16612    -0.23210
  in kB      -2.24016    -2.23417    -2.34291     0.01878    -0.02158    -0.03015

 VOLUME and BASIS-vectors are now :
  energy-cutoff  :      249.84
  volume of cell :    12332.96
      direct lattice vectors                 reciprocal lattice vectors
    23.104100586  0.000000000  0.000000000     0.043282360  0.000000000  0.000000000
     0.000000000 23.104100586  0.000000000     0.000000000  0.043282360  0.000000000
     0.000000000  0.000000000 23.104100586     0.000000000  0.000000000  0.043282360

  length of vectors
    23.104100586 23.104100586 23.104100586     0.043282360  0.043282360  0.043282360

 FORCES acting on ions
    electron-ion (+dipol)            ewald-force                    non-local-force                 convergence-correction
   -.148E+04 -.981E+02 0.977E+03   0.148E+04 0.984E+02 -.975E+03   0.423E+01 -.313E+00 -.259E+01   -.371E-02 -.781E-02 0.146E-01
   -.173E+04 -.369E+02 -.201E+03   0.172E+04 0.366E+02 0.200E+03   0.355E+01 0.292E+00 0.152E+01   -.218E-01 0.881E-02 0.101E-01
   -.136E+04 -.112E+04 0.156E+03   0.135E+04 0.111E+04 -.155E+03   0.309E+01 0.465E+01 -.775E+00   0.693E-02 0.857E-02 0.805E-03
   -.162E+04 0.743E+03 -.171E+03   0.162E+04 -.740E+03 0.171E+03   0.307E+01 -.258E+01 0.304E+00   -.143E-01 0.116E-01 0.235E-01
   -.118E+04 0.648E+03 0.829E+03   0.118E+04 -.647E+03 -.828E+03   0.275E+00 -.113E+01 -.397E+00   0.770E-02 0.113E-01 0.271E-02
   -.890E+03 0.136E+04 0.856E+03   0.889E+03 -.136E+04 -.852E+03   0.167E+01 -.285E+01 -.377E+01   -.133E-02 0.983E-02 -.181E-01
   -.771E+03 -.113E+04 0.114E+04   0.768E+03 0.113E+04 -.114E+04   0.233E+01 0.339E+01 -.193E+01   0.785E-02 -.220E-01 -.459E-02
   -.129E+04 -.969E+03 -.779E+03   0.128E+04 0.968E+03 0.776E+03   0.269E+01 0.146E+01 0.230E+01   0.185E-02 0.119E-01 0.113E-01
   -.777E+03 0.216E+03 0.150E+04   0.776E+03 -.215E+03 -.149E+04   0.632E+00 -.177E+00 -.230E+01   0.303E-01 -.350E-01 -.969E-02
   -.854E+03 -.573E+03 0.374E+03   0.852E+03 0.573E+03 -.374E+03   0.125E+01 -.453E+00 -.186E+00   -.220E-01 -.131E-02 0.644E-02
   -.120E+04 -.427E+02 -.793E+03   0.120E+04 0.427E+02 0.793E+03   0.972E+00 -.314E-01 -.164E+00   -.866E-02 -.108E-02 0.114E-01
   -.943E+03 0.153E+04 -.314E+03   0.941E+03 -.152E+04 0.314E+03   0.258E+01 -.322E+01 0.412E+00   -.748E-02 0.892E-02 -.106E-01
   -.119E+04 0.634E+03 -.125E+04   0.118E+04 -.633E+03 0.125E+04   0.221E+01 -.120E+00 0.463E+01   -.175E-01 0.110E-02 0.103E-01
   -.456E+03 -.173E+04 0.211E+03   0.455E+03 0.173E+04 -.210E+03   0.890E+00 0.311E+01 -.143E+01   -.108E-01 -.209E-02 -.398E-02
   -.223E+03 0.121E+04 0.106E+04   0.222E+03 -.121E+04 -.106E+04   0.121E+01 -.120E+01 -.111E+01   0.760E-02 0.123E-01 -.190E-01
   0.599E+02 -.133E+04 0.892E+03   -.593E+02 0.133E+04 -.891E+03   -.627E+00 0.108E+01 -.432E+00   0.192E-02 -.968E-02 -.113E-01
   -.485E+03 0.335E+03 -.111E+04   0.486E+03 -.334E+03 0.111E+04   -.744E+00 -.678E-01 -.466E+00   -.241E-01 0.192E-01 0.136E-01
   -.572E+03 0.744E+03 -.408E+02   0.570E+03 -.743E+03 0.404E+02   0.134E+01 -.129E+01 0.450E+00   0.118E-01 0.170E-01 -.285E-01
   -.303E+03 0.693E+02 0.684E+03   0.303E+03 -.693E+02 -.684E+03   0.304E+00 0.654E-01 -.428E+00   0.213E-01 -.128E-01 -.381E-02
   -.868E+03 -.498E+03 -.142E+04   0.866E+03 0.498E+03 0.142E+04   0.181E+01 0.220E+00 0.196E+01   -.267E-01 -.282E-02 -.200E-02
   -.681E+02 -.668E+03 0.162E+04   0.681E+02 0.667E+03 -.162E+04   -.381E-01 0.168E+01 -.487E+01   0.257E-01 -.502E-02 -.624E-02
   0.766E+01 0.177E+04 0.224E+03   -.771E+01 -.177E+04 -.223E+03   0.634E-01 -.324E+01 -.116E+01   0.596E-02 0.155E-01 -.857E-02
   -.325E+03 -.642E+03 -.266E+03   0.325E+03 0.641E+03 0.265E+03   0.220E-01 0.856E+00 0.772E+00   -.131E-01 -.986E-02 0.471E-02
   -.691E+02 0.460E+03 0.168E+04   0.702E+02 -.459E+03 -.168E+04   -.117E+01 -.110E+01 -.287E+01   0.190E-02 -.121E-01 -.242E-01
   -.354E+03 0.142E+04 -.100E+04   0.353E+03 -.142E+04 0.100E+04   0.933E+00 -.210E+01 0.148E+01   -.648E-02 0.301E-01 -.805E-02
   0.204E+03 0.365E+03 -.770E+02   -.203E+03 -.364E+03 0.769E+02   -.200E+00 -.869E+00 0.128E+00   -.281E-01 -.160E-01 -.900E-02
   -.542E+03 -.153E+04 -.854E+03   0.541E+03 0.152E+04 0.852E+03   0.108E+01 0.296E+01 0.213E+01   -.787E-02 -.490E-02 -.188E-02
   0.626E+03 0.269E+03 0.844E+03   -.625E+03 -.269E+03 -.843E+03   -.129E+01 -.326E+00 -.127E+01   -.227E-01 -.183E-02 -.279E-01
   0.645E+03 -.842E+03 0.139E+04   -.644E+03 0.841E+03 -.139E+04   -.134E+01 0.153E+01 -.174E+01   0.108E-01 -.178E-02 -.168E-01
   -.598E+02 -.116E+04 -.138E+04   0.601E+02 0.116E+04 0.137E+04   -.342E+00 0.246E+01 0.234E+01   -.568E-02 0.248E-02 0.528E-02
   0.456E+03 0.149E+04 -.398E+03   -.457E+03 -.149E+04 0.397E+03   0.488E+00 -.870E+00 0.794E+00   0.230E-02 0.272E-01 -.214E-02
   -.752E+02 0.972E+03 -.150E+04   0.749E+02 -.972E+03 0.149E+04   0.264E+00 -.777E+00 0.366E+01   -.228E-01 0.103E-01 0.231E-01
   0.307E+03 -.173E+04 0.102E+02   -.307E+03 0.173E+04 -.971E+01   -.463E+00 0.287E+01 -.508E+00   -.151E-01 -.161E-01 0.162E-01
   0.538E+03 0.118E+04 0.132E+04   -.537E+03 -.118E+04 -.132E+04   -.151E+01 -.393E+01 -.310E+01   -.145E-03 0.125E-01 -.146E-01
   0.728E+03 0.145E+04 0.484E+03   -.727E+03 -.145E+04 -.483E+03   -.795E+00 -.944E+00 -.129E+01   0.595E-02 0.317E-02 -.335E-01
   0.517E+03 -.938E+03 0.516E+03   -.517E+03 0.938E+03 -.517E+03   -.582E+00 0.659E-01 0.488E+00   0.107E-01 0.125E-01 0.249E-01
   -.241E+03 -.144E+03 -.170E+04   0.240E+03 0.145E+03 0.170E+04   0.123E+01 -.290E+00 0.281E+01   0.125E-01 0.364E-02 0.249E-01
   0.398E+03 -.637E+03 -.538E+03   -.398E+03 0.636E+03 0.537E+03   -.168E+00 0.117E+01 0.129E+01   0.200E-02 -.161E-01 -.125E-01
   0.629E+03 0.297E+03 -.737E+03   -.628E+03 -.296E+03 0.736E+03   -.936E+00 -.735E+00 0.116E+01   -.160E-01 0.342E-02 -.483E-02
   0.108E+04 0.975E+02 0.145E+04   -.108E+04 -.972E+02 -.144E+04   -.257E+01 -.370E+00 -.438E+01   -.973E-02 -.984E-02 0.638E-02
   0.137E+04 -.720E+02 0.133E+03   -.137E+04 0.723E+02 -.133E+03   -.108E-01 -.272E+00 0.223E+00   -.388E-02 0.288E-02 -.244E-01
   0.848E+03 -.149E+04 -.687E+03   -.846E+03 0.148E+04 0.685E+03   -.127E+01 0.427E+01 0.141E+01   0.247E-02 -.104E-01 0.227E-02
   0.143E+04 0.103E+04 0.866E+01   -.143E+04 -.103E+04 -.874E+01   -.234E+01 -.139E+01 0.112E+00   0.160E-02 0.418E-02 0.701E-02
   0.145E+04 -.733E+03 0.844E+03   -.145E+04 0.732E+03 -.843E+03   -.374E+01 0.939E+00 -.119E+01   0.199E-01 -.146E-02 0.759E-05
   0.989E+03 0.125E+04 -.893E+03   -.987E+03 -.125E+04 0.891E+03   -.219E+01 -.395E+01 0.217E+01   0.215E-01 -.912E-02 -.754E-02
   0.156E+04 0.655E+03 0.678E+03   -.156E+04 -.654E+03 -.675E+03   -.359E+01 -.910E+00 -.273E+01   0.424E-02 -.128E-01 -.699E-02
   0.124E+04 -.131E+04 0.326E+03   -.123E+04 0.131E+04 -.325E+03   -.270E+01 0.299E+01 -.774E+00   0.158E-01 0.118E-02 -.473E-02
   0.727E+03 0.280E+03 -.161E+04   -.725E+03 -.279E+03 0.161E+04   -.202E+01 -.100E+01 0.419E+01   0.183E-01 -.642E-02 0.284E-01
   0.866E+03 -.657E+03 -.141E+04   -.864E+03 0.655E+03 0.141E+04   -.216E+01 0.148E+01 0.207E+01   0.162E-01 0.782E-02 0.671E-02
   0.161E+04 -.642E+03 -.414E+03   -.161E+04 0.640E+03 0.415E+03   -.279E+01 0.181E+01 -.581E+00   0.374E-01 -.250E-01 0.131E-01
   0.163E+04 0.238E+03 -.662E+03   -.163E+04 -.237E+03 0.660E+03   -.352E+01 -.673E+00 0.176E+01   0.113E-01 -.148E-01 0.503E-01
   0.976E+00 -.199E+01 0.193E+01   0.477E-11 -.125E-11 0.296E-11   -.906E+00 0.215E+01 -.190E+01   0.139E-01 -.108E-01 -.727E-02

 POSITION                                       TOTAL-FORCE (eV/Angst)
     16.91410     12.84104      8.55580        -0.030215     -0.008631     -0.024351
     17.09818     12.27754     11.33048         0.001625      0.001485     -0.009100
     16.89964     15.05324     10.43956         0.022628      0.048788     -0.004104
     16.42851      9.52445     11.96560        -0.017841     -0.011017     -0.007060
     15.33733     10.63043      9.68252        -0.034867      0.027971     -0.018675
     14.67597      7.89387      9.98529        -0.011598      0.014852      0.010117
     14.98294     14.87780      7.81106        -0.003931      0.006454      0.002909
     15.41587     14.46058     12.81709         0.000894      0.021562      0.010851
     14.37603     12.10579      7.52711         0.033446     -0.026432      0.033263
     14.77813     13.44724     10.22894        -0.056196     -0.048311     -0.007259
     14.88829     11.74679     13.01450         0.006315     -0.025567     -0.006640
     14.81983      7.15904     12.63125         0.014368     -0.008102     -0.008250
     15.04162      9.32700     14.40698        -0.007795     -0.020002     -0.025374
     13.67650     15.93955     11.09612         0.016453      0.024997     -0.007539
     12.14571      9.06145      9.29230         0.015060      0.001113      0.027460
     12.46500     14.61082      8.97049         0.008338     -0.004707      0.011491
     12.51326     10.63646     14.32912         0.014586      0.008626      0.042895
     13.51738      9.62408     11.83863         0.019508     -0.036200     -0.017938
     12.63795     11.74545      9.83161         0.102611      0.006661      0.023216
     13.39024     13.24769     14.92579         0.010496     -0.006988      0.004805
     12.63597     13.83203      6.32152        -0.016329      0.011778      0.008273
     12.13356      7.22792     11.52407         0.018418     -0.000113     -0.030479
     12.73948     13.42978     12.17677        -0.043269      0.012530     -0.004780
     11.80236     11.04962      7.15842        -0.053287     -0.018801     -0.015237
     12.70356      7.77260     14.34467         0.020992     -0.037528     -0.015742
     10.99657     10.88546     11.96089        -0.040385      0.001939      0.038842
     13.18227     15.84559     13.88191         0.014669      0.004486     -0.000900
      9.95524     11.07550      9.35293        -0.097919     -0.077569     -0.032467
     10.23697     13.38992      7.67195        -0.023723      0.015838     -0.035242
     11.18244     14.82627     15.59420         0.010530     -0.001520      0.006549
     10.19546      8.20202     13.31454        -0.004170      0.009918      0.044636
     10.83143      9.02818     16.00956        -0.010099      0.031087     -0.007740
     10.93237     15.81821     12.26617        -0.005286     -0.033800     -0.028878
      9.76542      8.90205      7.72723        -0.003867      0.033357      0.037841
      9.68710      8.50415     10.62310        -0.007140      0.018925     -0.032327
     10.44331     13.55033     10.54119        -0.020914      0.061548      0.107818
     11.11835     12.02485     16.28312         0.063787     -0.003301     -0.035686
     10.15733     13.30966     13.44023         0.010189     -0.005623     -0.033831
      9.39186     10.80006     14.30040         0.009522     -0.030789     -0.042847
      8.29744     11.28503      7.15294         0.037291     -0.006989      0.056281
      8.21762     11.79307     11.77628         0.027586      0.025468     -0.010344
      8.78094     15.61516     14.29010         0.006837      0.004285     -0.008168
      7.65139      9.16418     12.45657        -0.001080     -0.015414      0.040146
      7.91228     13.10004      9.29676        -0.013697     -0.044103      0.026095
      8.13162      8.42513     15.19747         0.012013      0.039918     -0.009378
      7.40777     10.01805      9.71692         0.044403     -0.010618     -0.011996
      8.25196     14.78741     11.62840         0.039354      0.005741     -0.009625
      8.63952     10.64428     16.95315        -0.029934     -0.046963      0.004078
      8.69815     13.27271     15.96886        -0.043711      0.023577     -0.032345
      7.07012     13.35989     13.76090        -0.022795      0.042868      0.022561
      6.65983     10.79300     14.62762         0.018132      0.023316     -0.025822
    total drift:                                0.083934      0.146923      0.018283

  FREE ENERGIE OF THE ION-ELECTRON SYSTEM (eV)
  free  energy   TOTEN  =      -111.42256933 eV

  energy  without entropy=     -111.42256933  energy(sigma->0) =     -111.42256933

 d Force =-0.1221311E-04[-0.270E-02, 0.268E-02]  d Energy =-0.6702093E-03 0.658E-03
 d Force = 0.2850985E+02[ 0.286E+02, 0.284E+02]  d Ewald  = 0.2850995E+02-0.949E-04

 reached required accuracy - stopping structural energy minimisation