 vasp.5.3.5 31Mar14 (build Feb 01 2018 12:10:03) gamma-only

 executed on             LinuxIFC date 2019.03.24  09:54:26

 INCAR:
 POTCAR:    PAW_PBE Ag 02Apr2005
 POTCAR:    PAW_PBE Ag 02Apr2005
   VRHFIN =Ag : s1 d10

   TITEL  = PAW_PBE Ag 02Apr2005
   POMASS =  107.868; ZVAL   =   11.000    mass and valenz
   ENMAX  =  249.844; ENMIN  =  187.383 eV

  PAW_PBE Ag 02Apr2005                  :

 POSCAR: Pt48, -244.81508675 <s> Ag </s>
  positions in direct lattice
 exchange correlation table for  LEXCH =        8
   RHO(1)=    0.500       N(1)  =     2000
   RHO(2)=  100.500       N(2)  =     4000

 ion  position               nearest neighbor table
   1  0.597  0.518  0.736-   2 2.65   8 2.67   3 2.72   5 2.77  10 3.43
   2  0.616  0.424  0.670-   1 2.65   4 2.71  13 2.72   9 2.78   3 2.80   6 2.91
   3  0.502  0.457  0.699-   7 2.69   1 2.72   5 2.77   6 2.79   2 2.80  11 2.81  16 2.92  10 3.29

   4  0.628  0.333  0.596-  17 2.69   2 2.71   9 2.76  21 2.78   6 2.79  13 3.30
   5  0.492  0.576  0.721-  14 2.72  10 2.72   1 2.77   3 2.77  18 2.82  11 2.85   8 3.03
   6  0.516  0.351  0.640-  17 2.75   7 2.78   4 2.79   3 2.79  19 2.84   2 2.91  16 3.35  13 3.51

   7  0.406  0.393  0.671-   3 2.69  19 2.71  11 2.74  29 2.77   6 2.78  16 3.13
   8  0.610  0.619  0.679-   1 2.67  10 2.68  15 2.73  22 2.75  18 2.88   5 3.03
   9  0.696  0.431  0.579-  12 2.66  13 2.74   4 2.76   2 2.78  28 2.82  21 2.89
  10  0.533  0.566  0.610-  20 2.67   8 2.68  16 2.71   5 2.72  27 2.75  18 2.75  13 2.77   3 3.29
                             1 3.43
  11  0.393  0.512  0.680-  14 2.69   7 2.74  29 2.78   3 2.81  26 2.82   5 2.85  16 3.01
  12  0.747  0.533  0.556-   9 2.66  15 2.66  28 2.70  25 2.78  20 3.45
  13  0.583  0.466  0.563-  37 2.69  16 2.70   2 2.72   9 2.74  20 2.77  10 2.77  17 3.05   4 3.30
                            21 3.31  28 3.43   6 3.51
  14  0.395  0.629  0.679-  23 2.68  11 2.69   5 2.72  26 2.75  18 2.76
  15  0.686  0.628  0.588-  12 2.66  20 2.67   8 2.73  22 2.75  38 2.90  25 3.01
  16  0.466  0.473  0.577-  24 2.66  13 2.70  10 2.71  29 2.78  19 2.81   3 2.92  11 3.01   7 3.13
                            27 3.33   6 3.35  17 3.54
  17  0.537  0.347  0.522-   4 2.69  32 2.72   6 2.75  21 2.75  19 2.76  34 2.76  13 3.05  16 3.54

  18  0.502  0.675  0.649-  10 2.75  22 2.75  14 2.76  23 2.80   5 2.82  30 2.83   8 2.88
  19  0.423  0.360  0.559-   7 2.71  32 2.72  17 2.76  16 2.81  29 2.82  43 2.83   6 2.84
  20  0.607  0.576  0.520-  10 2.67  15 2.67  25 2.72  37 2.72  38 2.73  27 2.76  13 2.77  28 3.28
                            12 3.45
  21  0.649  0.367  0.481-  17 2.75   4 2.78  31 2.78  28 2.79  34 2.82   9 2.89  13 3.31  37 3.43

[...]

  25  0.707  0.599  0.461-  20 2.72  39 2.73  28 2.78  12 2.78  38 2.83  42 2.86  15 3.01
  26  0.333  0.574  0.592-  14 2.75  29 2.78  36 2.79  40 2.80  23 2.81  11 2.82
  27  0.489  0.596  0.502-  24 2.67  10 2.75  20 2.76  23 2.88  41 2.89  30 2.89  36 2.91  35 2.92
                            33 3.06  37 3.27  16 3.33
  28  0.695  0.478  0.465-  12 2.70  31 2.71  25 2.78  21 2.79  42 2.81   9 2.82  37 2.96  20 3.28
                            13 3.43
  29  0.347  0.453  0.584-  40 2.71   7 2.77  16 2.78  26 2.78  11 2.78  19 2.82  43 2.87
  30  0.516  0.715  0.533-  22 2.72  33 2.74  23 2.80  35 2.81  38 2.82  18 2.83  27 2.89
  31  0.655  0.418  0.371-  34 2.69  28 2.71  42 2.74  21 2.78  45 2.79  37 3.12
  32  0.448  0.333  0.446-  34 2.72  19 2.72  17 2.72  44 2.72  43 2.73
  33  0.425  0.704  0.456-  35 2.73  23 2.74  30 2.74  41 2.74  36 2.74  27 3.06
  34  0.551  0.375  0.406-  31 2.69  32 2.72  17 2.76  37 2.81  21 2.82  44 2.83  45 2.85
  35  0.535  0.679  0.417-  39 2.67  33 2.73  41 2.76  38 2.80  30 2.81  46 2.81  27 2.92
  36  0.364  0.602  0.477-  40 2.64  33 2.74  23 2.76  41 2.77  26 2.79  47 2.84  27 2.91  24 3.26

  37  0.568  0.489  0.449-  24 2.65  13 2.69  20 2.72  45 2.77  34 2.81  42 2.89  28 2.96  31 3.12
                            27 3.27  21 3.43
  38  0.630  0.690  0.493-  20 2.73  22 2.76  39 2.76  35 2.80  30 2.82  25 2.83  15 2.90
  39  0.642  0.655  0.378-  35 2.67  42 2.69  25 2.73  46 2.76  38 2.76
  40  0.296  0.511  0.494-  36 2.64  29 2.71  43 2.74  26 2.80  47 2.82
  41  0.443  0.609  0.385-  48 2.64  33 2.74  35 2.76  36 2.77  46 2.79  47 2.85  27 2.89  24 3.22

  42  0.651  0.538  0.368-  39 2.69  31 2.74  45 2.80  28 2.81  46 2.82  25 2.86  37 2.89
  43  0.363  0.415  0.466-  24 2.71  32 2.73  40 2.74  19 2.83  29 2.87  47 2.89  44 2.94
  44  0.444  0.423  0.367-  24 2.70  32 2.72  48 2.74  34 2.83  47 2.89  45 2.90  43 2.94
  45  0.554  0.473  0.329-  48 2.71  37 2.77  31 2.79  46 2.80  42 2.80  34 2.85  44 2.90
  46  0.549  0.596  0.328-  39 2.76  41 2.79  45 2.80  35 2.81  48 2.82  42 2.82
  47  0.360  0.515  0.389-  24 2.77  40 2.82  48 2.82  36 2.84  41 2.85  44 2.89  43 2.89
  48  0.451  0.525  0.305-  41 2.64  45 2.71  44 2.74  46 2.82  47 2.82

  LATTYP: Found a simple cubic cell.
 ALAT       =    22.8668668777

  Lattice vectors:

 A1 = (  22.8668668777,   0.0000000000,   0.0000000000)
 A2 = (   0.0000000000,  22.8668668777,   0.0000000000)
 A3 = (   0.0000000000,   0.0000000000,  22.8668668777)

Analysis of symmetry for initial positions (statically):
 Subroutine PRICEL returns:
 Original cell was already a primitive cell.

 Routine SETGRP: Setting up the symmetry group for a
 simple cubic supercell.

 Subroutine GETGRP returns: Found  1 space group operations
 (whereof  1 operations were pure point group operations)
 out of a pool of 48 trial point group operations.

The static configuration has the point symmetry C_1 .

Analysis of symmetry for dynamics (positions and initial velocities):
 Subroutine PRICEL returns:
 Original cell was already a primitive cell.

 Routine SETGRP: Setting up the symmetry group for a
 simple cubic supercell.

 Subroutine GETGRP returns: Found  1 space group operations
 (whereof  1 operations were pure point group operations)
 out of a pool of 48 trial point group operations.

The dynamic configuration has the point symmetry C_1 .

Analysis of magnetic symmetry:
 Subroutine PRICEL returns:
 Original cell was already a primitive cell.

 Subroutine MAGSYM returns: Found  1 space group operations
 (whereof  1 operations were pure point group operations)
 out of a pool of  1 trial space group operations
 (whereof  1 operations were pure point group operations)
 and found also     1 'primitive' translations

The magnetic configuration has the point symmetry C_1 .

 KPOINTS: Gamma-point only
  k-points in reciprocal lattice
Space group operators:
 irot       det(A)        alpha          n_x          n_y          n_z        tau_x        tau_y        tau_z
    1     1.000000     0.000000     1.000000     0.000000     0.000000     0.000000     0.000000     0.000000

 I would recommend the setting:
   dimension x,y,z NGX =    88 NGY =   88 NGZ =   88
 SYSTEM =  unknown system
 POSCAR =  Pt48, -244.81508675 <s> Ag </s>

 Startparameter for this run:
   NWRITE =      2    write-flag & timer
   PREC   = normal    normal or accurate (medium, high low for compatibility)
   ISTART =      0    job   : 0-new  1-cont  2-samecut
   ICHARG =      2    charge: 1-file 2-atom 10-const
   ISPIN  =      2    spin polarized calculation?
   LNONCOLLINEAR =      F non collinear calculations
   LSORBIT =      F    spin-orbit coupling
   INIWAV =      1    electr: 0-lowe 1-rand  2-diag
   LASPH  =      F    aspherical Exc in radial PAW
   METAGGA=      F    non-selfconsistent MetaGGA calc.

 Electronic Relaxation 1
   ENCUT  =  249.8 eV  18.36 Ry    4.29 a.u.  29.47 29.47 29.47*2*pi/ulx,y,z
   ENINI  =  249.8     initial cutoff
   ENAUG  =  412.5 eV  augmentation charge cutoff
   NELM   =     60;   NELMIN=  2; NELMDL= -5     # of ELM steps
   EDIFF  = 0.1E-03   stopping-criterion for ELM
   LREAL  =      F    real-space projection
   NLSPLINE    = F    spline interpolate recip. space projectors
   LCOMPAT=      F    compatible to vasp.4.4
   GGA_COMPAT  = T    GGA compatible to vasp.4.4-vasp.4.6
   LMAXPAW     = -100 max onsite density
   LMAXMIX     =    2 max onsite mixed and CHGCAR
   VOSKOWN=      0    Vosko Wilk Nusair interpolation
   ROPT   =    0.00000
 Ionic relaxation
   EDIFFG = 0.1E-02   stopping-criterion for IOM
   NSW    =   1000    number of steps for IOM
   NBLOCK =      1;   KBLOCK =   1000    inner block; outer block
   IBRION =      2    ionic relax: 0-MD 1-quasi-New 2-CG
   NFREE  =      1    steps in history (QN), initial steepest desc. (CG)
   ISIF   =      2    stress and relaxation
   IWAVPR =     11    prediction:  0-non 1-charg 2-wave 3-comb
   ISYM   =      2    0-nonsym 1-usesym 2-fastsym
   LCORR  =      T    Harris-Foulkes like correction to forces

   POTIM  = 0.1000    time-step for ionic-motion
   TEIN   =    0.0    initial temperature
   TEBEG  =    0.0;   TEEND  =   0.0 temperature during run
   SMASS  =  -3.00    Nose mass-parameter (am)
   estimated Nose-frequenzy (Omega)   =  0.10E-29 period in steps =****** mass=  -0.119E-25a.u.
   SCALEE = 1.0000    scale energy and forces
   NPACO  =    256;   APACO  = 16.0  distance and # of slots for P.C.
   PSTRESS=    0.0 pullay stress

  Mass of Ions in am
   POMASS = 107.87
  Ionic Valenz
   ZVAL   =  11.00
  Atomic Wigner-Seitz radii
  virtual crystal weights
   VCA    =   1.00
   NELECT =     528.0000    total number of electrons
   NUPDOWN=      -1.0000    fix difference up-down

 DOS related values:
   EMIN   =  10.00;   EMAX   =-10.00  energy-range for DOS
   EFERMI =   0.00
   ISMEAR =     0;   SIGMA  =   0.00  broadening in eV -4-tet -1-fermi 0-gaus

 Electronic relaxation 2 (details)
   IALGO  =     38    algorithm
   LDIAG  =      T    sub-space diagonalisation (order eigenvalues)
   LSUBROT=      F    optimize rotation matrix (better conditioning)
   TURBO    =      0    0=normal 1=particle mesh
   IRESTART =      0    0=no restart 2=restart with 2 vectors
   NREBOOT  =      0    no. of reboots
   NMIN     =      0    reboot dimension
   EREF     =   0.00    reference energy to select bands
   IMIX   =      4    mixing-type and parameters
     AMIX     =   0.40;   BMIX     =  1.00
     AMIX_MAG =   1.60;   BMIX_MAG =  1.00
     AMIN     =   0.10
     WC   =   100.;   INIMIX=   1;  MIXPRE=   1;  MAXMIX= -45

 Intra band minimization:
   WEIMIN = 0.0010     energy-eigenvalue tresh-hold
   EBREAK =  0.74E-07  absolut break condition
   DEPER  =   0.30     relativ break condition

   TIME   =   0.40     timestep for ELM

  volume/ion in A,a.u.               =     249.10      1681.03
  Fermi-wavevector in a.u.,A,eV,Ry     =   0.578646  1.093482  4.555652  0.334831
  Thomas-Fermi vector in A             =   1.622035

 Write flags
   LWAVE  =      F    write WAVECAR
   LCHARG =      F    write CHGCAR
   LVTOT  =      F    write LOCPOT, total local potential
   LVHAR  =      F    write LOCPOT, Hartree potential only
   LELF   =      F    write electronic localiz. function (ELF)
   LORBIT =      0    0 simple, 1 ext, 2 COOP (PROOUT)

 Dipole corrections
   LMONO  =      F    monopole corrections only (constant potential shift)
   LDIPOL =      F    correct potential (dipole corrections)
[...]

  energy without entropy =     -106.25251440  energy(sigma->0) =     -106.25251440

 average (electrostatic) potential at core
  the test charge radii are     1.1249
  (the norm of the test charge is              1.0000)
       1 -81.8425       2 -82.0397       3 -82.0429       4 -82.0117       5 -81.9908
       6 -82.1072       7 -81.9612       8 -81.8371       9 -82.0408      10 -82.2626
      11 -81.9837      12 -81.8415      13 -82.4669      14 -81.7707      15 -81.8547
      16 -82.3563      17 -82.0952      18 -81.8238      19 -82.0608      20 -82.2557
      21 -82.1041      22 -81.7783      23 -82.2493      24 -82.3753      25 -81.9909
      26 -81.8237      27 -82.5700      28 -82.0426      29 -81.9896      30 -82.2343
      31 -81.9599      32 -82.0119      33 -81.9541      34 -82.0549      35 -82.2485
      36 -82.2476      37 -82.3490      38 -81.8231      39 -81.7724      40 -81.7836
      41 -82.2439      42 -81.9790      43 -81.9984      44 -82.0069      45 -81.9834
      46 -81.8162      47 -81.8455      48 -81.7828

 E-fermi :  -3.3513     XC(G=0):  -1.3776     alpha+bet : -0.9214

[...]

 spin component 2

 k-point     1 :       0.0000    0.0000    0.0000
  band No.  band energies     occupation
      1      -9.9308      1.00000
      2      -9.3035      1.00000
      3      -9.2863      1.00000
      4      -9.2233      1.00000
      5      -9.1867      1.00000
      6      -9.1623      1.00000
      7      -9.1267      1.00000
      8      -9.0463      1.00000
      9      -9.0411      1.00000
     10      -8.9899      1.00000
     11      -8.9271      1.00000
     12      -8.8783      1.00000
     13      -8.8541      1.00000
     14      -8.7922      1.00000
     15      -8.7743      1.00000
     16      -8.7475      1.00000
     17      -8.6989      1.00000
     18      -8.6567      1.00000
     19      -8.6416      1.00000
     20      -8.6253      1.00000
     21      -8.6199      1.00000
     22      -8.6004      1.00000
     23      -8.5880      1.00000
     24      -8.5790      1.00000
     25      -8.5745      1.00000
     26      -8.5575      1.00000
     27      -8.5466      1.00000
     28      -8.5409      1.00000
     29      -8.5278      1.00000
     30      -8.4959      1.00000
     31      -8.4744      1.00000
     32      -8.4686      1.00000
     33      -8.4543      1.00000
     34      -8.4439      1.00000
     35      -8.4091      1.00000
     36      -8.3966      1.00000
     37      -8.3757      1.00000
     38      -8.3658      1.00000
     39      -8.3488      1.00000
     40      -8.3449      1.00000
     41      -8.3296      1.00000
     42      -8.3077      1.00000
     43      -8.2937      1.00000
     44      -8.2692      1.00000
     45      -8.2343      1.00000
     46      -8.2269      1.00000
     47      -8.2023      1.00000
     48      -8.2012      1.00000
     49      -8.1814      1.00000
     50      -8.1768      1.00000
     51      -8.1734      1.00000
     52      -8.1269      1.00000
     53      -8.1211      1.00000
     54      -8.1040      1.00000
     55      -8.0755      1.00000
     56      -8.0682      1.00000
     57      -8.0587      1.00000
     58      -8.0374      1.00000
     59      -7.9986      1.00000
     60      -7.9919      1.00000
[...]
    326       1.2150      0.00000
    327       1.2257      0.00000
    328       1.2489      0.00000
    329       1.2680      0.00000
    330       1.3241      0.00000
    331       1.3784      0.00000
    332       1.4167      0.00000
    333       1.4246      0.00000
    334       1.4331      0.00000
    335       1.4613      0.00000
    336       1.4701      0.00000
    337       1.4869      0.00000
    338       1.4993      0.00000
    339       1.5053      0.00000
    340       1.5268      0.00000

[...]

 soft charge-density along one line, spin component           2
         0         1         2         3         4         5         6         7         8         9
 total charge-density along one line

------------------------ aborting loop because EDIFF is reached ----------------------------------------

  FORCE on cell =-STRESS in cart. coord.  units (eV):
  Direction    XX          YY          ZZ          XY          YZ          ZX
  Alpha Z   163.89914   163.89914   163.89914
  Ewald   48626.02810 38073.22253 52016.53102  6836.51434  4595.25418 -3645.36607
  Hartree 64482.60408 54376.38548 67739.53033  6447.51869  4323.69300 -3512.50482
  E(xc)   -2784.19663 -2784.54385 -2784.13339     0.32021     0.25146     0.14771
  Local  ************************************-13283.88822 -8918.65406  7158.67045
  n-local  -495.19824  -496.60722  -494.60997     0.95376     0.82076    -0.08292
  augment  4411.76083  4412.21705  4411.39084    -0.46509    -0.40676    -0.15788
  Kinetic  6569.96791  6570.52081  6569.43350    -1.24669    -0.96504    -0.40646
  Fock        0.00000     0.00000     0.00000     0.00000     0.00000     0.00000
  Total     -17.33147   -17.24659   -16.75115    -0.29301    -0.00646     0.30000
  in kB      -2.32234    -2.31097    -2.24458    -0.03926    -0.00087     0.04020

 VOLUME and BASIS-vectors are now :
  energy-cutoff  :      249.84
  volume of cell :    11956.94
      direct lattice vectors                 reciprocal lattice vectors
    22.866866878  0.000000000  0.000000000     0.043731396  0.000000000  0.000000000
     0.000000000 22.866866878  0.000000000     0.000000000  0.043731396  0.000000000
     0.000000000  0.000000000 22.866866878     0.000000000  0.000000000  0.043731396

  length of vectors
    22.866866878 22.866866878 22.866866878     0.043731396  0.043731396  0.043731396

 FORCES acting on ions
    electron-ion (+dipol)            ewald-force                    non-local-force                 convergence-correction
   -.720E+03 -.282E+02 -.163E+04   0.717E+03 0.284E+02 0.162E+04   0.293E+01 -.244E+00 0.486E+01   -.467E-03 0.296E-04 -.124E-03
   -.925E+03 0.749E+03 -.133E+04   0.923E+03 -.748E+03 0.133E+04   0.212E+01 -.113E+01 0.222E+01   -.551E-03 0.927E-03 0.127E-02
   0.181E+03 0.570E+03 -.165E+04   -.182E+03 -.568E+03 0.165E+04   0.377E+00 -.176E+01 0.274E+01   0.379E-03 0.542E-03 -.169E-04
   -.887E+03 0.153E+04 -.616E+03   0.885E+03 -.152E+04 0.614E+03   0.238E+01 -.383E+01 0.168E+01   -.122E-03 -.287E-03 -.260E-03
   0.268E+03 -.587E+03 -.159E+04   -.269E+03 0.585E+03 0.159E+04   0.445E-01 0.110E+01 0.265E+01   0.450E-04 -.243E-02 -.751E-03
   0.569E+02 0.147E+04 -.102E+04   -.572E+02 -.147E+04 0.102E+04   0.303E+00 -.242E+01 0.154E+01   0.128E-02 -.590E-03 0.190E-03
   0.983E+03 0.104E+04 -.120E+04   -.980E+03 -.104E+04 0.120E+04   -.268E+01 -.280E+01 0.355E+01   -.467E-03 -.484E-03 -.677E-03
   -.791E+03 -.835E+03 -.127E+04   0.790E+03 0.834E+03 0.127E+04   0.132E+01 0.131E+01 0.237E+01   -.344E-03 0.754E-03 -.252E-03
   -.153E+04 0.685E+03 -.598E+03   0.153E+04 -.684E+03 0.596E+03   0.258E+01 -.113E+01 0.166E+01   0.750E-03 -.114E-02 -.139E-03
   -.437E+03 -.152E+03 -.927E+03   0.438E+03 0.152E+03 0.925E+03   -.356E+00 -.265E+00 0.131E+01   -.984E-03 0.569E-03 -.939E-03
   0.115E+04 -.224E+02 -.131E+04   -.115E+04 0.225E+02 0.131E+04   -.240E+01 -.166E+00 0.179E+01   0.402E-03 -.262E-02 -.394E-03
   -.172E+04 -.130E+03 -.406E+03   0.172E+04 0.130E+03 0.404E+03   0.534E+01 -.323E-01 0.203E+01   0.289E-02 0.662E-03 -.662E-04
   -.476E+03 0.731E+03 -.335E+03   0.475E+03 -.729E+03 0.334E+03   0.635E+00 -.170E+01 0.374E+00   0.953E-03 0.454E-03 -.189E-03
   0.104E+04 -.106E+04 -.943E+03   -.103E+04 0.106E+04 0.940E+03   -.335E+01 0.379E+01 0.270E+01   -.141E-02 -.143E-02 -.470E-03
   -.133E+04 -.908E+03 -.592E+03   0.133E+04 0.907E+03 0.591E+03   0.246E+01 0.159E+01 0.926E+00   0.116E-04 0.187E-02 0.109E-02
   0.561E+03 0.386E+03 -.592E+03   -.560E+03 -.385E+03 0.591E+03   -.717E+00 -.108E+01 0.832E+00   0.176E-02 -.231E-03 -.635E-03
   -.105E+03 0.178E+04 0.550E+02   0.105E+03 -.178E+04 -.548E+02   0.240E-01 -.264E+01 -.195E+00   -.775E-04 -.118E-03 -.612E-03
   0.343E+03 -.151E+04 -.779E+03   -.342E+03 0.150E+04 0.778E+03   -.112E+01 0.366E+01 0.105E+01   -.152E-02 0.558E-03 -.271E-03
   0.939E+03 0.149E+04 -.293E+03   -.938E+03 -.149E+04 0.293E+03   -.679E+00 -.287E+01 0.538E+00   -.164E-03 -.619E-03 0.135E-03
   -.975E+03 -.209E+03 -.277E+03   0.974E+03 0.209E+03 0.278E+03   0.124E+01 -.137E+00 -.592E+00   -.955E-03 -.583E-03 -.630E-03
   -.111E+04 0.136E+04 0.377E+03   0.111E+04 -.136E+04 -.377E+03   0.178E+01 -.226E+01 -.249E+00   -.669E-03 -.862E-03 0.387E-03
   -.441E+03 -.159E+04 -.495E+03   0.440E+03 0.158E+04 0.494E+03   0.117E+01 0.535E+01 0.142E+01   0.513E-03 0.114E-02 0.300E-03
   0.754E+03 -.969E+03 -.377E+03   -.753E+03 0.969E+03 0.376E+03   -.639E+00 0.311E+00 0.764E+00   -.255E-03 -.134E-02 -.112E-02
   0.426E+03 0.686E+03 0.403E+03   -.425E+03 -.685E+03 -.403E+03   -.466E+00 -.141E+01 -.508E+00   0.125E-02 0.156E-02 -.157E-02
   -.146E+04 -.755E+03 0.510E+03   0.146E+04 0.753E+03 -.510E+03   0.249E+01 0.132E+01 -.358E+00   0.566E-03 0.135E-03 -.443E-03
   0.153E+04 -.749E+03 -.333E+03   -.153E+04 0.747E+03 0.333E+03   -.328E+01 0.235E+01 -.158E+00   -.115E-02 0.809E-03 0.878E-03
   0.142E+03 -.350E+03 0.912E+02   -.142E+03 0.350E+03 -.911E+02   -.178E+00 0.103E+00 -.130E+00   0.825E-03 0.352E-03 0.464E-04
   -.163E+04 0.389E+03 0.529E+03   0.163E+04 -.388E+03 -.528E+03   0.283E+01 -.150E+01 -.356E+00   0.154E-02 -.859E-03 0.254E-03
   0.158E+04 0.537E+03 -.481E+03   -.158E+04 -.536E+03 0.479E+03   -.234E+01 -.798E+00 0.121E+01   -.534E-03 -.380E-03 0.940E-03
   -.635E+02 -.125E+04 -.149E+03   0.629E+02 0.125E+04 0.149E+03   0.620E+00 0.730E+00 0.562E+00   -.980E-03 0.166E-03 0.217E-03
   -.108E+04 0.851E+03 0.126E+04   0.108E+04 -.848E+03 -.126E+04   0.321E+01 -.224E+01 -.353E+01   0.127E-02 -.966E-03 -.544E-03
   0.687E+03 0.160E+04 0.694E+03   -.685E+03 -.159E+04 -.692E+03   -.183E+01 -.460E+01 -.190E+01   0.333E-03 0.396E-03 -.754E-03
   0.830E+03 -.155E+04 0.562E+03   -.828E+03 0.155E+04 -.560E+03   -.257E+01 0.490E+01 -.171E+01   -.815E-03 0.592E-03 0.615E-03
   -.228E+03 0.139E+04 0.110E+04   0.228E+03 -.138E+04 -.110E+04   0.652E+00 -.281E+01 -.102E+01   -.756E-03 -.374E-03 -.727E-04
   -.144E+03 -.105E+04 0.726E+03   0.143E+03 0.105E+04 -.725E+03   0.675E+00 0.478E+00 -.737E+00   0.351E-03 -.149E-03 0.291E-03
   0.113E+04 -.523E+03 0.322E+03   -.113E+04 0.523E+03 -.322E+03   -.112E+01 -.376E+00 0.448E-01   0.292E-03 -.194E-06 0.403E-04
   -.504E+03 0.288E+03 0.690E+03   0.503E+03 -.287E+03 -.689E+03   0.779E+00 -.915E+00 -.931E+00   -.355E-03 0.126E-03 0.369E-03
   -.556E+03 -.159E+04 0.354E+03   0.556E+03 0.159E+04 -.353E+03   0.411E+00 0.390E+01 -.955E+00   0.975E-03 -.268E-03 -.249E-04
   -.647E+03 -.121E+04 0.110E+04   0.645E+03 0.120E+04 -.109E+04   0.170E+01 0.419E+01 -.344E+01   0.115E-03 -.180E-02 0.192E-02
   0.168E+04 -.210E+03 0.332E+03   -.167E+04 0.209E+03 -.331E+03   -.544E+01 0.157E+01 -.121E+01   -.149E-02 -.951E-04 0.857E-04
   0.572E+03 -.578E+03 0.101E+04   -.572E+03 0.579E+03 -.101E+04   -.150E+00 -.282E+00 -.116E+01   0.294E-03 0.277E-04 0.162E-03
   -.107E+04 -.229E+03 0.135E+04   0.107E+04 0.228E+03 -.135E+04   0.127E+01 0.162E+00 -.278E+01   0.811E-03 0.658E-03 0.635E-03
   0.143E+04 0.849E+03 0.548E+03   -.143E+04 -.848E+03 -.546E+03   -.196E+01 -.149E+01 -.140E+01   -.420E-03 0.174E-03 -.498E-03
   0.743E+03 0.788E+03 0.137E+04   -.741E+03 -.787E+03 -.137E+04   -.159E+01 -.142E+01 -.175E+01   0.621E-04 0.139E-02 0.248E-03
   -.211E+03 0.376E+03 0.167E+04   0.210E+03 -.375E+03 -.167E+04   0.829E+00 -.480E+00 -.258E+01   -.595E-03 0.816E-03 0.350E-03
   0.277E+02 -.876E+03 0.149E+04   -.268E+02 0.873E+03 -.149E+04   -.937E+00 0.252E+01 -.309E+01   0.963E-03 0.218E-03 0.951E-03
   0.134E+04 -.318E+03 0.109E+04   -.133E+04 0.317E+03 -.108E+04   -.299E+01 0.157E+01 -.232E+01   -.319E-03 -.372E-03 0.153E-03
   0.668E+03 -.296E+03 0.157E+04   -.666E+03 0.294E+03 -.156E+04   -.229E+01 0.178E+01 -.502E+01   0.173E-03 0.235E-03 0.514E-03
   -.896E+00 0.697E-01 -.779E+00   0.114E-11 -.512E-12 0.296E-11   0.108E+01 -.741E-01 0.737E+00   0.341E-02 -.283E-02 0.599E-03

 POSITION                                       TOTAL-FORCE (eV/Angst)
     13.49738     12.32987     17.04678        -0.001326      0.011207     -0.001464
     13.90621     10.02547     15.36227         0.008305      0.011049      0.000080
     11.20705     10.76520     16.28983         0.005766     -0.000603     -0.003567
     14.25459      7.80704     13.53302         0.002487     -0.000615     -0.000619
     11.06111     13.65757     16.39846         0.002658     -0.003929     -0.002287
     11.58362      8.43377     14.48380         0.010207     -0.002772      0.002727
      8.95506      9.24808     15.32864         0.004609     -0.008556     -0.006896
     13.79812     14.72316     15.50170        -0.011525      0.007206      0.003357
     15.80315     10.22500     13.06945         0.003982     -0.006021      0.008342
     12.69490     12.41637     14.43690         0.003030      0.002450     -0.001622
      8.75700     12.12802     15.57518         0.005143     -0.009000     -0.009542
     17.20610     12.70170     12.58674         0.007586     -0.001731      0.012692
     13.00512     10.13650     12.68119         0.006294      0.005006     -0.002310
      8.63771     14.97232     15.65186        -0.002403     -0.009767      0.013960
     15.61323     14.94915     13.29810        -0.008929      0.001539      0.010016
     10.32749     10.89259     13.58759         0.008105     -0.001359     -0.007407
     12.05610      7.61728     11.70407        -0.001631      0.005060     -0.000827
     11.33547     16.08787     14.98344        -0.013146      0.004527     -0.000684
      9.31413      8.35949     12.63181         0.002863     -0.000981     -0.003739
     14.49225     12.61270     12.28072        -0.015052     -0.011171      0.004896
     14.65117      8.72087     10.81932        -0.001443     -0.004078      0.003209
     13.88074     17.10537     13.92746        -0.004051      0.003525      0.003177
     10.10623     13.88906     13.65156         0.002883     -0.005049     -0.012065
     10.75998     10.08290     10.83533         0.002640      0.003977     -0.006673
     15.98704     14.14889     10.42396        -0.004139     -0.000912     -0.001214
      7.29408     13.39734     13.51296        -0.004273      0.002158     -0.001803
     11.72167     12.50895     11.80361         0.007234      0.001307      0.006983
     16.15692     11.25412     10.35251         0.002300     -0.007865      0.005135
      7.53245     10.56752     13.22003         0.005765      0.003388     -0.001931
     12.71778     14.93032     12.79655        -0.012463     -0.001457     -0.002702
     14.92471      9.81883      8.18363         0.004588     -0.010033     -0.002119
      9.85815      7.65835      9.89377        -0.001871      0.002947     -0.005685
     10.46068     14.81213     10.95029        -0.004597      0.002257      0.002255
     12.39881      8.64692      8.93479        -0.004821     -0.001801     -0.002879
     13.09552     14.16730      9.99189         0.006807      0.005194     -0.005397
      8.92800     12.40454     11.39121         0.004638      0.003314     -0.001350
     13.32507     11.17233      9.97534        -0.005664      0.001160      0.009361
     14.45122     16.42495     11.12103         0.001963     -0.003732      0.001589
     14.69347     15.54205      8.28855        -0.001838     -0.010447      0.007843
      6.27004     11.94004     11.10785        -0.005085      0.001956     -0.000559
     10.78793     12.58042      9.13553        -0.005759      0.007454     -0.006446
     14.89648     12.70437      8.19120         0.001381      0.001392      0.001976
      7.95981      9.74617     10.49105        -0.001102      0.001156     -0.001165
      9.93430      9.92800      8.13714         0.000953      0.006248     -0.002938
     12.46453     11.00977      7.28600        -0.003308      0.004646     -0.001838
     12.48479     13.86486      7.21765         0.005953     -0.001509     -0.001271
      8.04571     11.96092      8.71747        -0.002118      0.001934     -0.000868
     10.03829     12.25493      6.54215        -0.001596      0.001328      0.002268
    total drift:                                0.182273     -0.007168     -0.041743

  FREE ENERGIE OF THE ION-ELECTRON SYSTEM (eV)
  free  energy   TOTEN  =      -106.25251440 eV

  energy  without entropy=     -106.25251440  energy(sigma->0) =     -106.25251440

 d Force = 0.2686316E-05[ 0.516E-05, 0.217E-06]  d Energy =-0.1101803E-04 0.137E-04
 d Force =-0.1056178E+00[-0.106E+00,-0.106E+00]  d Ewald  =-0.1056178E+00-0.218E-08

 reached required accuracy - stopping structural energy minimisation