 vasp.5.3.5 31Mar14 (build Feb 01 2018 12:10:03) gamma-only

 executed on             LinuxIFC date 2019.03.24  03:29:10

 INCAR:
 POTCAR:    PAW_PBE Ag 02Apr2005
 POTCAR:    PAW_PBE Ag 02Apr2005
   VRHFIN =Ag : s1 d10

   TITEL  = PAW_PBE Ag 02Apr2005
   POMASS =  107.868; ZVAL   =   11.000    mass and valenz
   ENMAX  =  249.844; ENMIN  =  187.383 eV

  PAW_PBE Ag 02Apr2005                  :

 POSCAR: Al45, -142.61169019 <s> Ag </s>
  positions in direct lattice
 exchange correlation table for  LEXCH =        8
   RHO(1)=    0.500       N(1)  =     2000
   RHO(2)=  100.500       N(2)  =     4000

 ion  position               nearest neighbor table
   1  0.630  0.399  0.601-   3 2.73   2 2.75   5 2.75   7 2.76   9 2.88  11 2.91   4 2.94  21 3.23

   2  0.595  0.295  0.544-   8 2.74   1 2.75   7 2.85   4 2.87  11 2.95
   3  0.704  0.474  0.538-   1 2.73  12 2.74   4 2.75  13 2.85  16 2.86   5 2.95  31 2.95  11 3.46

[...]

   8  0.483  0.323  0.501-   2 2.74  23 2.77  11 2.82  14 2.84  19 2.87  22 2.87   7 2.96
   9  0.558  0.464  0.686-  17 2.72  10 2.79   5 2.81  21 2.82   1 2.88   7 2.91  24 2.94
  10  0.586  0.564  0.616-  12 2.76   9 2.79  21 2.81  24 2.85  31 2.87  15 2.87   5 2.90  30 2.93
                            34 2.93
  11  0.573  0.411  0.484-  21 2.74   4 2.81   8 2.82  31 2.84  18 2.89  14 2.90   1 2.91   6 2.92
                             2 2.95  22 3.10  13 3.30   3 3.46   7 3.60
  12  0.706  0.584  0.592-   5 2.74   3 2.74  10 2.76  20 2.79  15 2.83  16 2.84  31 3.48
  13  0.686  0.473  0.411-  16 2.72  18 2.77   6 2.80   3 2.85  27 2.94  31 3.00   4 3.02  11 3.30

  14  0.505  0.365  0.383-  18 2.80  26 2.82   6 2.83   8 2.84  11 2.90  22 2.95
  15  0.626  0.683  0.585-  30 2.66  20 2.77  25 2.77  12 2.83  10 2.87  34 2.96
  16  0.715  0.579  0.465-  13 2.72  25 2.82  20 2.83  12 2.84  31 2.84  27 2.85   3 2.86
  17  0.441  0.429  0.689-   9 2.72  32 2.73  19 2.73   7 2.74  24 2.92  21 3.26
  18  0.569  0.473  0.370-  13 2.77  33 2.78   6 2.78  27 2.78  14 2.80  28 2.87  26 2.88  11 2.89
                            31 3.10
  19  0.405  0.388  0.580-  17 2.73  23 2.75  35 2.78   7 2.78  22 2.81  32 2.82   8 2.87  21 3.07
                            29 3.43
  20  0.736  0.687  0.527-  15 2.77  12 2.79  16 2.83  25 2.89
  21  0.511  0.475  0.569-  29 2.72  11 2.74  10 2.81   9 2.82  22 2.86  24 2.86  31 2.93   7 2.93
                            19 3.07   1 3.23  17 3.26  28 3.43
  22  0.438  0.439  0.469-  28 2.75  29 2.81  19 2.81  26 2.83  21 2.86   8 2.87  38 2.88  23 2.94
                            14 2.95  11 3.10  35 3.12  42 3.25
  23  0.362  0.332  0.479-  38 2.71  19 2.75   8 2.77  22 2.94  35 3.01
  24  0.466  0.554  0.659-  36 2.83  10 2.85  21 2.86  29 2.89  43 2.91  17 2.92   9 2.94  30 2.99
                            40 3.21  32 3.38
  25  0.626  0.668  0.462-  27 2.71  39 2.75  15 2.77  34 2.81  16 2.82  20 2.89  31 3.09
  26  0.442  0.468  0.346-  37 2.80  14 2.82  22 2.83  28 2.84  18 2.88  33 2.96  38 2.99  44 3.03
                            42 3.51
  27  0.625  0.584  0.374-  25 2.71  33 2.78  18 2.78  16 2.85  31 2.88  13 2.94  39 2.99  28 3.48

  28  0.486  0.548  0.435-  22 2.75  31 2.78  34 2.80  26 2.84  39 2.87  44 2.87  18 2.87  41 2.89
                            33 2.92  29 2.97  42 3.33  21 3.43  27 3.48
  29  0.409  0.537  0.543-  21 2.72  22 2.81  42 2.84  45 2.87  24 2.89  40 2.95  28 2.97  35 3.01
                            32 3.05  43 3.07  41 3.11  34 3.29  19 3.43
  30  0.522  0.675  0.643-  15 2.66  36 2.67  40 2.76  34 2.87  10 2.93  24 2.99
  31  0.597  0.536  0.491-  28 2.78  34 2.80  11 2.84  16 2.84  10 2.87  27 2.88  21 2.93   3 2.95
                            13 3.00  25 3.09  18 3.10  12 3.48
  32  0.338  0.475  0.642-  43 2.67  17 2.73  35 2.74  19 2.82  29 3.05  24 3.38
  33  0.519  0.570  0.310-  44 2.73  27 2.78  18 2.78  39 2.86  28 2.92  26 2.96
  34  0.522  0.631  0.522-  40 2.78  28 2.80  31 2.80  25 2.81  30 2.87  41 2.90  39 2.91  10 2.93
                            15 2.96  29 3.29
  35  0.310  0.448  0.526-  32 2.74  19 2.78  38 2.87  42 2.90  23 3.01  29 3.01  22 3.12
  36  0.422  0.663  0.709-  30 2.67  43 2.70  24 2.83  40 2.87
  37  0.326  0.508  0.317-  38 2.71  26 2.80  44 2.80  42 2.81
  38  0.329  0.420  0.401-  37 2.71  23 2.71  42 2.80  35 2.87  22 2.88  26 2.99
  39  0.521  0.665  0.397-  25 2.75  33 2.86  28 2.87  41 2.89  34 2.91  27 2.99  44 3.14
  40  0.416  0.664  0.580-  41 2.71  43 2.75  30 2.76  34 2.78  45 2.85  36 2.87  29 2.95  24 3.21

  41  0.409  0.649  0.460-  40 2.71  44 2.71  45 2.85  39 2.89  28 2.89  34 2.90  42 2.94  29 3.11

  42  0.337  0.540  0.438-  45 2.75  38 2.80  37 2.81  29 2.84  44 2.85  35 2.90  41 2.94  22 3.25
                            28 3.33  26 3.51
  43  0.342  0.594  0.649-  32 2.67  36 2.70  40 2.75  45 2.77  24 2.91  29 3.07
  44  0.406  0.599  0.348-  41 2.71  33 2.73  37 2.80  42 2.85  28 2.87  26 3.03  39 3.14
  45  0.308  0.616  0.531-  42 2.75  43 2.77  41 2.85  40 2.85  29 2.87

  LATTYP: Found a simple cubic cell.
 ALAT       =    22.2820672318

  Lattice vectors:

 A1 = (  22.2820672318,   0.0000000000,   0.0000000000)
 A2 = (   0.0000000000,  22.2820672318,   0.0000000000)
 A3 = (   0.0000000000,   0.0000000000,  22.2820672318)

Analysis of symmetry for initial positions (statically):
 Subroutine PRICEL returns:
 Original cell was already a primitive cell.

 Routine SETGRP: Setting up the symmetry group for a
 simple cubic supercell.

 Subroutine GETGRP returns: Found  1 space group operations
 (whereof  1 operations were pure point group operations)
 out of a pool of 48 trial point group operations.

The static configuration has the point symmetry C_1 .

Analysis of symmetry for dynamics (positions and initial velocities):
 Subroutine PRICEL returns:
 Original cell was already a primitive cell.

 Routine SETGRP: Setting up the symmetry group for a
 simple cubic supercell.

 Subroutine GETGRP returns: Found  1 space group operations
 (whereof  1 operations were pure point group operations)
 out of a pool of 48 trial point group operations.

The dynamic configuration has the point symmetry C_1 .

Analysis of magnetic symmetry:
 Subroutine PRICEL returns:
 Original cell was already a primitive cell.

 Subroutine MAGSYM returns: Found  1 space group operations
 (whereof  1 operations were pure point group operations)
 out of a pool of  1 trial space group operations
 (whereof  1 operations were pure point group operations)
 and found also     1 'primitive' translations

The magnetic configuration has the point symmetry C_1 .

 KPOINTS: Gamma-point only
  k-points in reciprocal lattice
Space group operators:
 irot       det(A)        alpha          n_x          n_y          n_z        tau_x        tau_y        tau_z
    1     1.000000     0.000000     1.000000     0.000000     0.000000     0.000000     0.000000     0.000000

 I would recommend the setting:
   dimension x,y,z NGX =    86 NGY =   86 NGZ =   86
 SYSTEM =  unknown system
 POSCAR =  Al45, -142.61169019 <s> Ag </s>

 Startparameter for this run:
   NWRITE =      2    write-flag & timer
   PREC   = normal    normal or accurate (medium, high low for compatibility)
   ISTART =      0    job   : 0-new  1-cont  2-samecut
   ICHARG =      2    charge: 1-file 2-atom 10-const
   ISPIN  =      2    spin polarized calculation?
   LNONCOLLINEAR =      F non collinear calculations
   LSORBIT =      F    spin-orbit coupling
   INIWAV =      1    electr: 0-lowe 1-rand  2-diag
   LASPH  =      F    aspherical Exc in radial PAW
   METAGGA=      F    non-selfconsistent MetaGGA calc.

 Electronic Relaxation 1
   ENCUT  =  249.8 eV  18.36 Ry    4.29 a.u.  28.72 28.72 28.72*2*pi/ulx,y,z
   ENINI  =  249.8     initial cutoff
   ENAUG  =  412.5 eV  augmentation charge cutoff
   NELM   =     60;   NELMIN=  2; NELMDL= -5     # of ELM steps
   EDIFF  = 0.1E-03   stopping-criterion for ELM
   LREAL  =      F    real-space projection
   NLSPLINE    = F    spline interpolate recip. space projectors
   LCOMPAT=      F    compatible to vasp.4.4
   GGA_COMPAT  = T    GGA compatible to vasp.4.4-vasp.4.6
   LMAXPAW     = -100 max onsite density
   LMAXMIX     =    2 max onsite mixed and CHGCAR
   VOSKOWN=      0    Vosko Wilk Nusair interpolation
   ROPT   =    0.00000
 Ionic relaxation
   EDIFFG = 0.1E-02   stopping-criterion for IOM
   NSW    =   1000    number of steps for IOM
   NBLOCK =      1;   KBLOCK =   1000    inner block; outer block
   IBRION =      2    ionic relax: 0-MD 1-quasi-New 2-CG
   NFREE  =      1    steps in history (QN), initial steepest desc. (CG)
   ISIF   =      2    stress and relaxation
   IWAVPR =     11    prediction:  0-non 1-charg 2-wave 3-comb
   ISYM   =      2    0-nonsym 1-usesym 2-fastsym
   LCORR  =      T    Harris-Foulkes like correction to forces

   POTIM  = 0.1000    time-step for ionic-motion
   TEIN   =    0.0    initial temperature
   TEBEG  =    0.0;   TEEND  =   0.0 temperature during run
   SMASS  =  -3.00    Nose mass-parameter (am)
   estimated Nose-frequenzy (Omega)   =  0.10E-29 period in steps =****** mass=  -0.113E-25a.u.
   SCALEE = 1.0000    scale energy and forces
   NPACO  =    256;   APACO  = 16.0  distance and # of slots for P.C.
   PSTRESS=    0.0 pullay stress

  Mass of Ions in am
   POMASS = 107.87
  Ionic Valenz
   ZVAL   =  11.00
  Atomic Wigner-Seitz radii
  virtual crystal weights
   VCA    =   1.00
   NELECT =     495.0000    total number of electrons
   NUPDOWN=      -1.0000    fix difference up-down

 DOS related values:
   EMIN   =  10.00;   EMAX   =-10.00  energy-range for DOS
   EFERMI =   0.00
   ISMEAR =     0;   SIGMA  =   0.00  broadening in eV -4-tet -1-fermi 0-gaus

 Electronic relaxation 2 (details)
   IALGO  =     38    algorithm
   LDIAG  =      T    sub-space diagonalisation (order eigenvalues)
   LSUBROT=      F    optimize rotation matrix (better conditioning)
   TURBO    =      0    0=normal 1=particle mesh
   IRESTART =      0    0=no restart 2=restart with 2 vectors
   NREBOOT  =      0    no. of reboots
   NMIN     =      0    reboot dimension
   EREF     =   0.00    reference energy to select bands
   IMIX   =      4    mixing-type and parameters
     AMIX     =   0.40;   BMIX     =  1.00
     AMIX_MAG =   1.60;   BMIX_MAG =  1.00
     AMIN     =   0.10
     WC   =   100.;   INIMIX=   1;  MIXPRE=   1;  MAXMIX= -45

 Intra band minimization:
   WEIMIN = 0.0010     energy-eigenvalue tresh-hold
   EBREAK =  0.78E-07  absolut break condition
   DEPER  =   0.30     relativ break condition

   TIME   =   0.40     timestep for ELM

  volume/ion in A,a.u.               =     245.84      1659.02
  Fermi-wavevector in a.u.,A,eV,Ry     =   0.581194  1.098297  4.595863  0.337786
  Thomas-Fermi vector in A             =   1.625603

 Write flags
   LWAVE  =      F    write WAVECAR
   LCHARG =      F    write CHGCAR
   LVTOT  =      F    write LOCPOT, total local potential
   LVHAR  =      F    write LOCPOT, Hartree potential only
   LELF   =      F    write electronic localiz. function (ELF)
   LORBIT =      0    0 simple, 1 ext, 2 COOP (PROOUT)

 Dipole corrections
   LMONO  =      F    monopole corrections only (constant potential shift)
[...]
 total energy-change (2. order) :-0.3209614E-05  (-0.1956137E-05)
 number of electron     494.9999994 magnetization       1.0000001
 augmentation part      237.4177427 magnetization      -0.0175483

 Free energy of the ion-electron system (eV)
  alpha Z        PSCENC =       155.69431945
  Ewald energy   TEWEN  =    120527.65294424
  -Hartree energ DENC   =   -165403.36568986
  -exchange      EXHF   =         0.00000000
  -V(xc)+E(xc)   XCENC  =      -508.96923859
  PAW double counting   =     48713.20238088   -46722.11120604
  entropy T*S    EENTRO =         0.00000000
  eigenvalues    EBANDS =     -3533.51923475
  atomic energy  EATOM  =     46673.93835389
  free energy    TOTEN  =       -97.47737080 eV

  energy without entropy =      -97.47737080  energy(sigma->0) =      -97.47737080

 average (electrostatic) potential at core
  the test charge radii are     1.1249
  (the norm of the test charge is              1.0000)
       1 -82.1895       2 -82.0192       3 -82.0831       4 -82.0158       5 -81.8612
       6 -81.9584       7 -82.0958       8 -82.1085       9 -82.0344      10 -82.0655
      11 -82.3258      12 -81.9606      13 -82.0840      14 -81.9772      15 -81.7970
      16 -81.9958      17 -82.1024      18 -82.1150      19 -82.0292      20 -81.8073
      21 -82.4717      22 -82.3685      23 -81.9651      24 -82.2250      25 -82.0995
      26 -82.1813      27 -82.1705      28 -82.2748      29 -82.3400      30 -81.8829
      31 -82.2692      32 -82.0321      33 -81.9772      34 -82.1712      35 -81.9524
      36 -81.8416      37 -81.8451      38 -82.0162      39 -82.1598      40 -82.0486
      41 -82.0881      42 -82.1819      43 -81.9768      44 -81.9978      45 -81.9728

 E-fermi :  -3.2088     XC(G=0):  -1.4013     alpha+bet : -0.9337

[...]

 spin component 2

 k-point     1 :       0.0000    0.0000    0.0000
  band No.  band energies     occupation
      1      -9.6725      1.00000
      2      -9.1256      1.00000
      3      -9.0520      1.00000
      4      -9.0193      1.00000
      5      -9.0070      1.00000
      6      -8.9583      1.00000
      7      -8.9431      1.00000
      8      -8.9077      1.00000
      9      -8.8826      1.00000
     10      -8.8660      1.00000
     11      -8.8213      1.00000
     12      -8.8135      1.00000
     13      -8.7698      1.00000
     14      -8.7450      1.00000
     15      -8.7422      1.00000
     16      -8.7096      1.00000
     17      -8.6595      1.00000
     18      -8.6390      1.00000
     19      -8.6343      1.00000
     20      -8.6228      1.00000
     21      -8.5965      1.00000
     22      -8.5826      1.00000
     23      -8.5528      1.00000
     24      -8.5448      1.00000
     25      -8.5325      1.00000
     26      -8.5270      1.00000
     27      -8.5085      1.00000
     28      -8.4963      1.00000
     29      -8.4827      1.00000
     30      -8.4506      1.00000
     31      -8.4256      1.00000
     32      -8.4156      1.00000
     33      -8.4081      1.00000
     34      -8.3914      1.00000
     35      -8.3881      1.00000
     36      -8.3791      1.00000
     37      -8.3759      1.00000
     38      -8.3622      1.00000
     39      -8.3282      1.00000
     40      -8.3124      1.00000
     41      -8.3091      1.00000
     42      -8.3025      1.00000
     43      -8.2681      1.00000
     44      -8.2495      1.00000
     45      -8.2444      1.00000
     46      -8.2272      1.00000
     47      -8.2160      1.00000
     48      -8.2083      1.00000
     49      -8.1931      1.00000
     50      -8.1749      1.00000
     51      -8.1518      1.00000
     52      -8.1352      1.00000
     53      -8.1206      1.00000
     54      -8.1076      1.00000
     55      -8.0973      1.00000
     56      -8.0767      1.00000
     57      -8.0646      1.00000
     58      -8.0484      1.00000
     59      -8.0426      1.00000
     60      -8.0321      1.00000
[...]
    306       1.2356      0.00000
    307       1.2423      0.00000
    308       1.2679      0.00000
    309       1.2960      0.00000
    310       1.3156      0.00000
    311       1.3808      0.00000
    312       1.4148      0.00000
    313       1.4553      0.00000
    314       1.4704      0.00000
    315       1.4794      0.00000
    316       1.5105      0.00000
    317       1.5225      0.00000
    318       1.5456      0.00000
    319       1.5717      0.00000
    320       1.5736      0.00000

[...]

 soft charge-density along one line, spin component           2
         0         1         2         3         4         5         6         7         8         9
 total charge-density along one line

------------------------ aborting loop because EDIFF is reached ----------------------------------------

  FORCE on cell =-STRESS in cart. coord.  units (eV):
  Direction    XX          YY          ZZ          XY          YZ          ZX
  Alpha Z   155.69432   155.69432   155.69432
  Ewald   53186.00362 35141.99436 32199.54533  3998.78600  6635.18800  1876.18264
  Hartree 67485.12395 50262.08320 47656.17052  3690.65383  6161.33178  1775.35714
  E(xc)   -2608.92007 -2609.92060 -2610.79873     0.57520     0.80309     0.11611
  Local  ************-92794.54620-87254.02612 -7689.60787-12794.68153 -3653.35052
  n-local  -464.17672  -465.95887  -465.84366     1.53993     2.13296     0.90944
  augment  4133.08484  4135.27002  4137.67402    -0.70759    -1.64661     0.10313
  Kinetic  6154.22047  6159.25623  6165.20239    -1.08555    -2.86381     0.71011
  Fock        0.00000     0.00000     0.00000     0.00000     0.00000     0.00000
  Total     -16.06976   -16.12755   -16.38193     0.15396     0.26388     0.02805
  in kB      -2.32731    -2.33568    -2.37252     0.02230     0.03822     0.00406

 VOLUME and BASIS-vectors are now :
  energy-cutoff  :      249.84
  volume of cell :    11062.84
      direct lattice vectors                 reciprocal lattice vectors
    22.282067232  0.000000000  0.000000000     0.044879139  0.000000000  0.000000000
     0.000000000 22.282067232  0.000000000     0.000000000  0.044879139  0.000000000
     0.000000000  0.000000000 22.282067232     0.000000000  0.000000000  0.044879139

  length of vectors
    22.282067232 22.282067232 22.282067232     0.044879139  0.044879139  0.044879139

 FORCES acting on ions
    electron-ion (+dipol)            ewald-force                    non-local-force                 convergence-correction
   -.900E+03 0.905E+03 -.852E+03   0.898E+03 -.904E+03 0.852E+03   0.128E+01 -.986E+00 0.639E+00   0.933E-04 0.978E-03 0.113E-02
   -.555E+03 0.162E+04 -.315E+03   0.553E+03 -.162E+04 0.313E+03   0.185E+01 -.351E+01 0.132E+01   0.643E-03 0.397E-03 -.452E-04
   -.162E+04 0.367E+03 -.208E+03   0.161E+04 -.366E+03 0.207E+03   0.341E+01 -.512E+00 0.126E+01   0.212E-04 0.138E-02 0.425E-03
   -.132E+04 0.111E+04 0.830E+02   0.132E+04 -.110E+04 -.823E+02   0.294E+01 -.316E+01 -.643E+00   0.244E-03 0.797E-03 0.460E-03
   -.115E+04 0.217E+03 -.128E+04   0.115E+04 -.215E+03 0.127E+04   0.215E+01 -.183E+01 0.375E+01   0.600E-03 0.142E-03 0.565E-03
   -.703E+03 0.129E+04 0.989E+03   0.701E+03 -.129E+04 -.987E+03   0.192E+01 -.405E+01 -.222E+01   0.174E-02 -.393E-03 -.386E-03
   -.307E+01 0.129E+04 -.108E+04   0.288E+01 -.129E+04 0.108E+04   0.188E+00 -.154E+01 0.138E+01   -.610E-03 -.111E-03 0.313E-03
   0.213E+03 0.167E+04 -.336E+02   -.213E+03 -.167E+04 0.338E+02   0.463E+00 -.289E+01 -.190E+00   0.594E-03 -.534E-04 0.940E-03
   -.368E+03 0.487E+03 -.167E+04   0.367E+03 -.486E+03 0.167E+04   0.783E+00 -.111E+01 0.459E+01   0.728E-03 0.692E-03 -.168E-03
   -.635E+03 -.552E+03 -.121E+04   0.635E+03 0.553E+03 0.121E+04   0.546E+00 -.636E+00 0.946E+00   0.104E-03 -.221E-02 0.526E-03
   -.342E+03 0.763E+03 0.241E+03   0.342E+03 -.762E+03 -.240E+03   0.150E+00 -.141E+01 -.358E+00   0.200E-03 -.209E-03 -.336E-03
   -.136E+04 -.538E+03 -.657E+03   0.136E+04 0.537E+03 0.657E+03   0.185E+01 0.104E+01 0.242E-01   0.705E-03 0.467E-03 -.200E-03
   -.128E+04 0.402E+03 0.981E+03   0.128E+04 -.401E+03 -.979E+03   0.223E+01 -.599E+00 -.140E+01   -.153E-03 0.162E-02 -.655E-03
   0.155E+03 0.126E+04 0.118E+04   -.154E+03 -.125E+04 -.118E+04   -.127E+01 -.312E+01 -.244E+01   0.185E-02 -.807E-03 0.473E-04
   -.593E+03 -.141E+04 -.576E+03   0.592E+03 0.141E+04 0.575E+03   0.719E+00 0.356E+01 0.779E+00   -.566E-03 0.457E-03 0.177E-04
   -.147E+04 -.418E+03 0.704E+03   0.147E+04 0.418E+03 -.701E+03   0.306E+01 0.601E+00 -.265E+01   -.440E-04 -.168E-03 0.478E-04
   0.544E+03 0.635E+03 -.146E+04   -.543E+03 -.634E+03 0.146E+04   -.743E+00 -.665E+00 0.242E+01   -.268E-02 -.449E-03 -.113E-03
   -.520E+03 0.453E+03 0.150E+04   0.520E+03 -.452E+03 -.150E+04   -.793E-01 -.668E+00 -.178E+01   0.728E-03 -.407E-04 -.527E-03
   0.862E+03 0.122E+04 -.774E+03   -.861E+03 -.122E+04 0.773E+03   -.103E+01 -.233E+01 0.105E+01   -.124E-02 0.267E-03 -.435E-04
   -.113E+04 -.112E+04 0.138E+03   0.112E+04 0.112E+04 -.137E+03   0.468E+01 0.441E+01 -.113E+01   0.190E-02 0.193E-02 0.220E-03
   -.663E+02 0.191E+03 -.582E+03   0.672E+02 -.190E+03 0.582E+03   -.962E+00 -.123E+01 0.621E+00   -.252E-02 -.283E-03 -.900E-03
   0.551E+03 0.591E+03 0.255E+03   -.551E+03 -.589E+03 -.256E+03   -.562E+00 -.142E+01 0.762E+00   0.139E-03 -.759E-03 -.710E-03
   0.960E+03 0.143E+04 0.342E+03   -.957E+03 -.142E+04 -.341E+03   -.264E+01 -.409E+01 -.101E+01   0.710E-03 -.116E-02 -.495E-03
   0.125E+03 -.336E+03 -.141E+04   -.124E+03 0.335E+03 0.141E+04   -.850E+00 0.747E+00 0.106E+01   -.813E-03 -.230E-02 -.107E-02
   -.560E+03 -.134E+04 0.546E+03   0.560E+03 0.134E+04 -.546E+03   0.600E+00 0.155E+01 0.524E+00   0.375E-03 0.979E-03 0.325E-03
   0.345E+03 0.286E+03 0.145E+04   -.345E+03 -.286E+03 -.145E+04   -.597E+00 0.377E+00 -.544E+00   -.324E-03 -.114E-02 -.106E-03
   -.857E+03 -.562E+03 0.128E+04   0.856E+03 0.561E+03 -.128E+04   0.100E+01 0.959E+00 -.144E+01   -.137E-02 -.117E-02 -.302E-03
   0.633E+02 -.279E+03 0.577E+03   -.638E+02 0.278E+03 -.575E+03   0.430E+00 0.115E+01 -.157E+01   -.106E-02 -.613E-03 0.188E-03
   0.751E+03 -.187E+03 -.304E+03   -.750E+03 0.188E+03 0.303E+03   -.106E+01 -.631E+00 0.875E+00   -.173E-02 -.686E-03 -.852E-03
   -.102E+03 -.141E+04 -.879E+03   0.102E+03 0.141E+04 0.878E+03   -.143E+00 0.384E+01 0.156E+01   0.840E-05 -.110E-02 0.677E-03
   -.749E+03 -.184E+03 0.307E+02   0.747E+03 0.183E+03 -.309E+02   0.128E+01 0.939E+00 0.201E+00   -.146E-02 0.106E-02 0.518E-03
   0.141E+04 0.406E+03 -.881E+03   -.141E+04 -.406E+03 0.878E+03   -.262E+01 -.640E+00 0.275E+01   -.228E-02 0.169E-02 -.197E-02
   -.231E+03 -.504E+03 0.166E+04   0.230E+03 0.502E+03 -.166E+04   0.810E+00 0.245E+01 -.421E+01   -.108E-02 -.732E-03 -.147E-04
   -.895E+01 -.114E+04 -.946E+02   0.814E+01 0.114E+04 0.945E+02   0.816E+00 0.191E-01 0.725E-01   0.113E-02 -.102E-02 0.202E-03
   0.160E+04 0.506E+03 0.171E+02   -.160E+04 -.506E+03 -.161E+02   -.316E+01 0.122E+00 -.987E+00   -.126E-02 -.118E-02 -.208E-03
   0.482E+03 -.919E+03 -.126E+04   -.481E+03 0.916E+03 0.125E+04   -.156E+01 0.315E+01 0.545E+01   0.463E-04 0.737E-03 -.150E-02
   0.103E+04 -.201E+03 0.127E+04   -.103E+04 0.200E+03 -.127E+04   -.403E+01 0.104E+01 -.460E+01   0.836E-03 0.368E-03 0.451E-03
   0.116E+04 0.718E+03 0.102E+04   -.116E+04 -.716E+03 -.102E+04   -.153E+01 -.225E+01 -.256E+01   -.234E-03 -.720E-03 -.813E-03
   -.387E+02 -.146E+04 0.894E+03   0.382E+02 0.146E+04 -.892E+03   0.536E+00 0.329E+01 -.246E+01   -.199E-02 0.159E-03 0.149E-03
   0.814E+03 -.137E+04 -.378E+03   -.813E+03 0.137E+04 0.378E+03   -.169E+01 0.228E+01 0.797E+00   0.339E-02 0.957E-03 0.114E-02
   0.832E+03 -.138E+04 0.388E+03   -.830E+03 0.138E+04 -.387E+03   -.119E+01 0.175E+01 -.447E+00   0.203E-03 -.761E-03 0.532E-04
   0.131E+04 -.414E+03 0.558E+03   -.131E+04 0.414E+03 -.557E+03   -.141E+01 0.574E+00 -.567E+00   -.169E-02 -.133E-02 0.133E-02
   0.111E+04 -.315E+03 -.123E+04   -.111E+04 0.314E+03 0.123E+04   -.232E+01 0.521E+00 0.209E+01   -.145E-02 0.655E-03 -.186E-04
   0.653E+03 -.104E+04 0.118E+04   -.652E+03 0.104E+04 -.118E+04   -.105E+01 0.179E+01 -.197E+01   -.107E-02 -.177E-03 0.197E-02
   0.157E+04 -.713E+03 -.137E+03   -.157E+04 0.711E+03 0.137E+03   -.469E+01 0.223E+01 -.703E+00   -.193E-02 0.232E-02 -.179E-03
   0.150E+01 0.809E+00 0.975E+00   -.455E-12 -.182E-11 -.171E-12   -.149E+01 -.880E+00 -.961E+00   -.106E-01 -.152E-02 0.920E-04

 POSITION                                       TOTAL-FORCE (eV/Angst)
     14.01752      9.34952     13.09348        -0.001073      0.005961      0.004136
     13.23116      6.82822     11.81104        -0.000343      0.000848      0.005110
     16.29413     10.69689     11.95892        -0.001438      0.010859      0.003021
     15.54347      8.14271     11.04745        -0.002369      0.002937      0.005176
     15.37595     11.20203     14.66476         0.005876      0.003831     -0.004884
     13.57531      7.65964      8.94632         0.004413      0.002333     -0.000603
     11.41097      8.28935     13.54773        -0.002625     -0.005214      0.003062
     10.57398      7.01216     11.16447         0.002760     -0.003703      0.005827
     12.56007     10.49565     15.28462        -0.002238     -0.001645     -0.000631
     13.39856     13.09298     14.21689        -0.004080     -0.009896     -0.001541
     12.38951      9.31578     10.71437         0.001437     -0.001716     -0.001663
     15.92757     13.34477     12.99769         0.004185     -0.001855      0.002193
     15.01142     10.25990      9.38961        -0.005752      0.013834     -0.001454
     10.69526      8.07293      8.54368         0.006996     -0.008398      0.001925
     14.15510     15.56854     13.18790         0.002411      0.001512     -0.001807
     16.16606     12.93516     10.17204        -0.004222      0.006445     -0.000803
      9.63434     10.19233     14.70478        -0.006938     -0.005561     -0.000790
     12.57655     10.13562      7.94113         0.000968      0.000744      0.003253
      8.60488      8.31530     12.81647        -0.002107     -0.000058     -0.000003
     16.38500     15.53330     11.41168         0.008160      0.009952     -0.002374
     11.65161     11.03487     12.78807        -0.021673      0.006923     -0.008062
      9.48727      9.66462     10.47305         0.003404     -0.000977     -0.004386
      8.01892      7.29384     10.16231         0.004661     -0.009199     -0.011067
     10.71387     12.76628     14.83575         0.005981     -0.006557     -0.003338
     13.93345     14.70803     10.53596         0.004030      0.013903     -0.006693
      9.79442     10.67688      7.70200        -0.003775     -0.006829     -0.000839
     13.74834     12.65220      8.61466        -0.000465     -0.000324      0.004366
     11.15693     11.87480     10.00546        -0.004943     -0.003125      0.000378
      9.12804     11.86501     12.24217         0.018332     -0.021932     -0.000304
     11.64925     15.38427     14.40562         0.002534     -0.012435      0.008757
     13.80277     11.88597     11.36852        -0.001820      0.008774      0.002061
      6.98809     10.47197     13.64792        -0.004060      0.009632     -0.010903
     11.62687     12.57107      6.86158        -0.004009     -0.002196      0.005133
     11.61352     13.90463     12.03022         0.011789      0.000033     -0.001165
      6.69283      9.66667     11.08734        -0.005167     -0.018932     -0.007630
      9.37270     14.89719     16.01319         0.007621     -0.008914     -0.000857
      7.37535     11.66995      6.80922        -0.002962     -0.002120      0.003967
      7.45868      9.31723      8.36251        -0.006173     -0.005902     -0.005377
     11.53948     14.47925      9.12312        -0.004343      0.004613      0.002432
      9.09046     14.60124     13.26442         0.015768      0.003462      0.015788
      9.12174     14.16927     10.55473         0.001701     -0.008108     -0.010884
      7.77028     11.87173      9.62686        -0.006769     -0.002623      0.000730
      7.91894     12.68855     14.95917        -0.004925      0.002231     -0.003130
      9.19749     13.53463      7.81838        -0.004094     -0.004865      0.013238
      6.72647     12.97743     12.20516        -0.004664      0.044257      0.000635
    total drift:                               -0.004677     -0.072203      0.014042

  FREE ENERGIE OF THE ION-ELECTRON SYSTEM (eV)
  free  energy   TOTEN  =       -97.47737080 eV

  energy  without entropy=      -97.47737080  energy(sigma->0) =      -97.47737080

 d Force = 0.1787001E-04[ 0.276E-04, 0.816E-05]  d Energy = 0.1008906E-04 0.778E-05
 d Force =-0.5202589E-01[-0.520E-01,-0.520E-01]  d Ewald  =-0.5202589E-01 0.626E-09

 reached required accuracy - stopping structural energy minimisation