 vasp.5.3.5 31Mar14 (build Feb 01 2018 12:10:03) gamma-only

 executed on             LinuxIFC date 2019.03.25  01:37:07

 INCAR:
 POTCAR:    PAW_PBE Ag 02Apr2005
 POTCAR:    PAW_PBE Ag 02Apr2005
   VRHFIN =Ag : s1 d10

   TITEL  = PAW_PBE Ag 02Apr2005
   POMASS =  107.868; ZVAL   =   11.000    mass and valenz
   ENMAX  =  249.844; ENMIN  =  187.383 eV

  PAW_PBE Ag 02Apr2005                  :

 POSCAR: Al50, -159.57988309 <s> Ag </s>
  positions in direct lattice
 exchange correlation table for  LEXCH =        8
   RHO(1)=    0.500       N(1)  =     2000
   RHO(2)=  100.500       N(2)  =     4000

 ion  position               nearest neighbor table
   1  0.382  0.472  0.396-   5 2.69   2 2.72   7 2.76   9 2.85   4 2.86  25 3.00  14 3.05   6 3.08
                            17 3.18
   2  0.351  0.584  0.417-   1 2.72   3 2.78  10 2.81  17 2.88   8 2.91   9 2.96   7 2.98
   3  0.339  0.701  0.441-   2 2.78  16 2.80   8 2.83  10 2.98
   4  0.439  0.363  0.386-  18 2.78  15 2.80   6 2.80   5 2.85   1 2.86  25 2.92  14 3.13  13 3.46

   5  0.343  0.384  0.460-   1 2.69  19 2.72   4 2.85   9 2.86  14 2.89  15 2.96
   6  0.466  0.440  0.298-   4 2.80   7 2.85  11 2.86  25 2.86  13 2.88   1 3.08
   7  0.452  0.554  0.344-   1 2.76   8 2.80  11 2.82   6 2.85  17 2.88  12 2.92  25 2.94   2 2.98

   8  0.445  0.664  0.392-  12 2.77   7 2.80  16 2.83   3 2.83  22 2.84   2 2.91  17 3.03
   9  0.345  0.496  0.511-  20 2.80  10 2.84   1 2.85   5 2.86  14 2.87   2 2.96  37 3.02  17 3.23
                            19 3.36
  10  0.363  0.615  0.534-  26 2.73  24 2.80  16 2.81   2 2.81   9 2.84   3 2.98  17 3.04  37 3.16

  11  0.564  0.513  0.317-  25 2.74   7 2.82  23 2.83  12 2.85   6 2.86  13 2.87  28 2.87  21 3.08

  12  0.552  0.631  0.352-  22 2.74   8 2.77  23 2.80  11 2.85   7 2.92  21 3.01  27 3.24
  13  0.575  0.391  0.332-  18 2.86  11 2.87   6 2.88  29 2.88  25 2.90  28 2.95   4 3.46
  14  0.450  0.432  0.502-  25 2.64  37 2.79  31 2.80   9 2.87  19 2.89   5 2.89  15 3.01  17 3.04
                             1 3.05  32 3.08   4 3.13  18 3.19
  15  0.437  0.303  0.491-   4 2.80  31 2.80  19 2.87  18 2.90  33 2.94   5 2.96  14 3.01
  16  0.439  0.706  0.507-  24 2.74  22 2.77  39 2.78   3 2.80  10 2.81   8 2.83  17 3.58
  17  0.462  0.558  0.468-  37 2.77  25 2.81   2 2.88   7 2.88  21 2.88  35 2.91   8 3.03  14 3.04
                            10 3.04   1 3.18   9 3.23  22 3.27  16 3.58
  18  0.543  0.349  0.444-  42 2.78   4 2.78  31 2.79  29 2.80  25 2.85  13 2.86  15 2.90  14 3.19
                            32 3.42
  19  0.370  0.368  0.573-   5 2.72  36 2.73  20 2.75  15 2.87  14 2.89  33 2.90   9 3.36  31 3.51

  20  0.347  0.470  0.629-  26 2.71  19 2.75  38 2.80   9 2.80  36 2.89  37 2.93
  21  0.584  0.546  0.445-  25 2.68  35 2.79  27 2.80  17 2.88  32 2.89  29 2.91  41 2.91  12 3.01
                            34 3.07  22 3.08  11 3.08  23 3.22
  22  0.545  0.672  0.462-  12 2.74  16 2.77  35 2.80  39 2.83   8 2.84  27 2.88  30 2.92  21 3.08
                            17 3.27
  23  0.662  0.583  0.336-  27 2.67  28 2.76  12 2.80  11 2.83  34 2.97  21 3.22
  24  0.454  0.646  0.608-  16 2.74  40 2.77  39 2.79  26 2.79  10 2.80  48 2.83  35 2.87  37 2.93
                            47 3.02
  25  0.511  0.463  0.411-  14 2.64  21 2.68  11 2.74  17 2.81  18 2.85   6 2.86  13 2.90   4 2.92
                             7 2.94  29 2.96   1 3.00  32 3.25
  26  0.358  0.585  0.647-  20 2.71  10 2.73  24 2.79  40 2.86  38 2.88  37 3.01
  27  0.662  0.638  0.438-  30 2.65  23 2.67  21 2.80  22 2.88  41 2.91  34 2.96  12 3.24
  28  0.678  0.465  0.328-  23 2.76  29 2.80  11 2.87  34 2.93  13 2.95
  29  0.632  0.431  0.435-  32 2.76  42 2.78  28 2.80  18 2.80  34 2.81  13 2.88  21 2.91  25 2.96
                            46 2.99
  30  0.644  0.688  0.539-  27 2.65  39 2.70  44 2.77  22 2.92  41 2.98  35 3.16
  31  0.521  0.354  0.562-  43 2.71  18 2.79  14 2.80  15 2.80  32 2.84  33 2.86  42 2.94  49 2.97
                            50 3.05  36 3.30  19 3.51
  32  0.576  0.461  0.535-  29 2.76  49 2.79  31 2.84  21 2.89  45 2.92  46 2.97  50 3.04  14 3.08
                            35 3.10  42 3.11  41 3.16  25 3.25  37 3.39  18 3.42
  33  0.442  0.275  0.615-  43 2.80  31 2.86  19 2.90  15 2.94  36 2.97
  34  0.713  0.521  0.436-  41 2.74  29 2.81  28 2.93  27 2.96  23 2.97  46 3.05  21 3.07
  35  0.550  0.591  0.552-  47 2.76  21 2.79  22 2.80  41 2.83  37 2.86  24 2.87  17 2.91  44 2.97
                            32 3.10  39 3.15  30 3.16  45 3.51
  36  0.434  0.390  0.669-  49 2.72  19 2.73  38 2.76  43 2.78  20 2.89  33 2.97  31 3.30
  37  0.451  0.523  0.581-  17 2.77  14 2.79  38 2.82  35 2.86  20 2.93  24 2.93  47 2.97  49 2.97
                            26 3.01   9 3.02  10 3.16  32 3.39
  38  0.437  0.505  0.701-  36 2.76  47 2.79  40 2.80  20 2.80  37 2.82  49 2.85  26 2.88
  39  0.538  0.725  0.572-  30 2.70  16 2.78  24 2.79  48 2.80  22 2.83  35 3.15
  40  0.446  0.624  0.725-  48 2.74  24 2.77  38 2.80  47 2.83  26 2.86
  41  0.667  0.562  0.537-  45 2.72  34 2.74  35 2.83  44 2.84  46 2.85  27 2.91  21 2.91  30 2.98
                            32 3.16
  42  0.639  0.344  0.517-  50 2.71  29 2.78  18 2.78  46 2.81  31 2.94  32 3.11
  43  0.535  0.325  0.674-  31 2.71  36 2.78  33 2.80  50 2.85  49 2.94
  44  0.638  0.623  0.639-  30 2.77  47 2.79  45 2.80  41 2.84  48 2.87  35 2.97
  45  0.640  0.502  0.635-  41 2.72  50 2.76  49 2.79  44 2.80  47 2.90  32 2.92  46 2.93  35 3.51

  46  0.703  0.444  0.542-  42 2.81  41 2.85  50 2.89  45 2.93  32 2.97  29 2.99  34 3.05
  47  0.536  0.564  0.667-  49 2.70  35 2.76  38 2.79  44 2.79  48 2.80  40 2.83  45 2.90  37 2.97
                            24 3.02
  48  0.540  0.684  0.686-  40 2.74  39 2.80  47 2.80  24 2.83  44 2.87
  49  0.533  0.449  0.647-  47 2.70  36 2.72  50 2.78  32 2.79  45 2.79  38 2.85  43 2.94  37 2.97
                            31 2.97
  50  0.632  0.384  0.626-  42 2.71  45 2.76  49 2.78  43 2.85  46 2.89  32 3.04  31 3.05

  LATTYP: Found a simple cubic cell.
 ALAT       =    23.1513206084

  Lattice vectors:

 A1 = (  23.1513206084,   0.0000000000,   0.0000000000)
 A2 = (   0.0000000000,  23.1513206084,   0.0000000000)
 A3 = (   0.0000000000,   0.0000000000,  23.1513206084)

Analysis of symmetry for initial positions (statically):
 Subroutine PRICEL returns:
 Original cell was already a primitive cell.

 Routine SETGRP: Setting up the symmetry group for a
 simple cubic supercell.

 Subroutine GETGRP returns: Found  1 space group operations
 (whereof  1 operations were pure point group operations)
 out of a pool of 48 trial point group operations.

The static configuration has the point symmetry C_1 .

Analysis of symmetry for dynamics (positions and initial velocities):
 Subroutine PRICEL returns:
 Original cell was already a primitive cell.

 Routine SETGRP: Setting up the symmetry group for a
 simple cubic supercell.

 Subroutine GETGRP returns: Found  1 space group operations
 (whereof  1 operations were pure point group operations)
 out of a pool of 48 trial point group operations.

The dynamic configuration has the point symmetry C_1 .

Analysis of magnetic symmetry:
 Subroutine PRICEL returns:
 Original cell was already a primitive cell.

 Subroutine MAGSYM returns: Found  1 space group operations
 (whereof  1 operations were pure point group operations)
 out of a pool of  1 trial space group operations
 (whereof  1 operations were pure point group operations)
 and found also     1 'primitive' translations

The magnetic configuration has the point symmetry C_1 .

 KPOINTS: Gamma-point only
  k-points in reciprocal lattice
Space group operators:
 irot       det(A)        alpha          n_x          n_y          n_z        tau_x        tau_y        tau_z
    1     1.000000     0.000000     1.000000     0.000000     0.000000     0.000000     0.000000     0.000000

 I would recommend the setting:
   dimension x,y,z NGX =    90 NGY =   90 NGZ =   90
 SYSTEM =  unknown system
 POSCAR =  Al50, -159.57988309 <s> Ag </s>

 Startparameter for this run:
   NWRITE =      2    write-flag & timer
   PREC   = normal    normal or accurate (medium, high low for compatibility)
   ISTART =      0    job   : 0-new  1-cont  2-samecut
   ICHARG =      2    charge: 1-file 2-atom 10-const
   ISPIN  =      2    spin polarized calculation?
   LNONCOLLINEAR =      F non collinear calculations
   LSORBIT =      F    spin-orbit coupling
   INIWAV =      1    electr: 0-lowe 1-rand  2-diag
   LASPH  =      F    aspherical Exc in radial PAW
   METAGGA=      F    non-selfconsistent MetaGGA calc.

 Electronic Relaxation 1
   ENCUT  =  249.8 eV  18.36 Ry    4.29 a.u.  29.84 29.84 29.84*2*pi/ulx,y,z
   ENINI  =  249.8     initial cutoff
   ENAUG  =  412.5 eV  augmentation charge cutoff
   NELM   =     60;   NELMIN=  2; NELMDL= -5     # of ELM steps
   EDIFF  = 0.1E-03   stopping-criterion for ELM
   LREAL  =      F    real-space projection
   NLSPLINE    = F    spline interpolate recip. space projectors
   LCOMPAT=      F    compatible to vasp.4.4
   GGA_COMPAT  = T    GGA compatible to vasp.4.4-vasp.4.6
   LMAXPAW     = -100 max onsite density
   LMAXMIX     =    2 max onsite mixed and CHGCAR
   VOSKOWN=      0    Vosko Wilk Nusair interpolation
   ROPT   =    0.00000
 Ionic relaxation
   EDIFFG = 0.1E-02   stopping-criterion for IOM
   NSW    =   1000    number of steps for IOM
   NBLOCK =      1;   KBLOCK =   1000    inner block; outer block
   IBRION =      2    ionic relax: 0-MD 1-quasi-New 2-CG
   NFREE  =      1    steps in history (QN), initial steepest desc. (CG)
   ISIF   =      2    stress and relaxation
   IWAVPR =     11    prediction:  0-non 1-charg 2-wave 3-comb
   ISYM   =      2    0-nonsym 1-usesym 2-fastsym
   LCORR  =      T    Harris-Foulkes like correction to forces

   POTIM  = 0.1000    time-step for ionic-motion
   TEIN   =    0.0    initial temperature
   TEBEG  =    0.0;   TEEND  =   0.0 temperature during run
   SMASS  =  -3.00    Nose mass-parameter (am)
   estimated Nose-frequenzy (Omega)   =  0.10E-29 period in steps =****** mass=  -0.122E-25a.u.
   SCALEE = 1.0000    scale energy and forces
   NPACO  =    256;   APACO  = 16.0  distance and # of slots for P.C.
   PSTRESS=    0.0 pullay stress

  Mass of Ions in am
   POMASS = 107.87
  Ionic Valenz
   ZVAL   =  11.00
  Atomic Wigner-Seitz radii
  virtual crystal weights
   VCA    =   1.00
   NELECT =     550.0000    total number of electrons
   NUPDOWN=      -1.0000    fix difference up-down

 DOS related values:
   EMIN   =  10.00;   EMAX   =-10.00  energy-range for DOS
   EFERMI =   0.00
   ISMEAR =     0;   SIGMA  =   0.00  broadening in eV -4-tet -1-fermi 0-gaus

 Electronic relaxation 2 (details)
   IALGO  =     38    algorithm
   LDIAG  =      T    sub-space diagonalisation (order eigenvalues)
   LSUBROT=      F    optimize rotation matrix (better conditioning)
   TURBO    =      0    0=normal 1=particle mesh
   IRESTART =      0    0=no restart 2=restart with 2 vectors
   NREBOOT  =      0    no. of reboots
   NMIN     =      0    reboot dimension
   EREF     =   0.00    reference energy to select bands
[...]
      16 -81.9389      17 -82.3249      18 -82.1968      19 -82.1324      20 -82.1221
      21 -82.3116      22 -82.1194      23 -82.0585      24 -82.2110      25 -82.4363
      26 -82.0563      27 -82.1287      28 -81.8919      29 -82.2200      30 -82.0173
      31 -82.3010      32 -82.2806      33 -81.9500      34 -82.0895      35 -82.1578
      36 -82.2619      37 -82.2366      38 -82.1166      39 -82.0267      40 -81.9441
      41 -82.0607      42 -82.1053      43 -81.9532      44 -82.0936      45 -81.8675
      46 -82.2020      47 -82.1701      48 -81.9744      49 -82.0235      50 -82.0949

 E-fermi :  -3.2848     XC(G=0):  -1.3861     alpha+bet : -0.9249

[...]

 spin component 2

 k-point     1 :       0.0000    0.0000    0.0000
  band No.  band energies     occupation
      1      -9.6914      1.00000
      2      -9.1314      1.00000
      3      -9.1034      1.00000
      4      -9.0252      1.00000
      5      -9.0019      1.00000
      6      -8.9630      1.00000
      7      -8.9551      1.00000
      8      -8.9397      1.00000
      9      -8.9037      1.00000
     10      -8.8771      1.00000
     11      -8.8606      1.00000
     12      -8.8416      1.00000
     13      -8.8071      1.00000
     14      -8.7912      1.00000
     15      -8.7487      1.00000
     16      -8.7377      1.00000
     17      -8.7154      1.00000
     18      -8.6957      1.00000
     19      -8.6813      1.00000
     20      -8.6705      1.00000
     21      -8.6644      1.00000
     22      -8.6455      1.00000
     23      -8.6348      1.00000
     24      -8.6256      1.00000
     25      -8.6207      1.00000
     26      -8.5968      1.00000
     27      -8.5825      1.00000
     28      -8.5717      1.00000
     29      -8.5631      1.00000
     30      -8.5599      1.00000
     31      -8.5223      1.00000
     32      -8.5188      1.00000
     33      -8.5057      1.00000
     34      -8.4993      1.00000
     35      -8.4837      1.00000
     36      -8.4686      1.00000
     37      -8.4503      1.00000
     38      -8.4411      1.00000
     39      -8.4357      1.00000
     40      -8.4028      1.00000
     41      -8.3938      1.00000
     42      -8.3900      1.00000
     43      -8.3797      1.00000
     44      -8.3635      1.00000
     45      -8.3597      1.00000
     46      -8.3401      1.00000
     47      -8.3364      1.00000
     48      -8.3163      1.00000
     49      -8.2905      1.00000
     50      -8.2774      1.00000
     51      -8.2593      1.00000
     52      -8.2588      1.00000
     53      -8.2336      1.00000
     54      -8.2153      1.00000
     55      -8.2066      1.00000
     56      -8.2003      1.00000
     57      -8.1940      1.00000
     58      -8.1743      1.00000
     59      -8.1659      1.00000
     60      -8.1495      1.00000
[...]
    342       1.2452      0.00000
    343       1.2871      0.00000
    344       1.3133      0.00000
    345       1.3505      0.00000
    346       1.3711      0.00000
    347       1.4197      0.00000
    348       1.4239      0.00000
    349       1.4404      0.00000
    350       1.4609      0.00000
    351       1.4701      0.00000
    352       1.4748      0.00000
    353       1.5299      0.00000
    354       1.5411      0.00000
    355       1.5793      0.00000
    356       1.6094      0.00000

[...]

 soft charge-density along one line, spin component           2
         0         1         2         3         4         5         6         7         8         9
 total charge-density along one line

------------------------ aborting loop because EDIFF is reached ----------------------------------------

  FORCE on cell =-STRESS in cart. coord.  units (eV):
  Direction    XX          YY          ZZ          XY          YZ          ZX
  Alpha Z   171.36688   171.36688   171.36688
  Ewald   37032.96409 55017.61790 54265.94921  5002.29434  3983.64924 -6704.61910
  Hartree 54151.96364 71343.14428 70661.79640  4631.92324  3684.90411 -6222.84688
  E(xc)   -2900.45487 -2899.44027 -2899.66833     0.62831     0.55800    -0.79915
  Local  -99397.85417************************ -9632.87631 -7669.33627 12922.92079
  n-local  -513.98911  -512.24905  -512.70572     1.40757     1.86086    -0.15866
  augment  4595.37227  4594.24187  4594.53119    -1.00784    -0.48424     1.47836
  Kinetic  6844.08889  6841.43871  6842.34327    -2.28208    -0.89824     4.52972
  Fock        0.00000     0.00000     0.00000     0.00000     0.00000     0.00000
  Total     -16.54239   -17.32897   -17.40844     0.08724     0.25346     0.50507
  in kB      -2.13590    -2.23746    -2.24772     0.01126     0.03273     0.06521

 VOLUME and BASIS-vectors are now :
  energy-cutoff  :      249.84
  volume of cell :    12408.73
      direct lattice vectors                 reciprocal lattice vectors
    23.151320608  0.000000000  0.000000000     0.043194080  0.000000000  0.000000000
     0.000000000 23.151320608  0.000000000     0.000000000  0.043194080  0.000000000
     0.000000000  0.000000000 23.151320608     0.000000000  0.000000000  0.043194080

  length of vectors
    23.151320608 23.151320608 23.151320608     0.043194080  0.043194080  0.043194080

 FORCES acting on ions
    electron-ion (+dipol)            ewald-force                    non-local-force                 convergence-correction
   0.132E+04 0.206E+03 0.109E+04   -.132E+04 -.206E+03 -.109E+04   -.161E+01 -.148E-02 -.862E+00   0.940E-03 -.168E-02 -.787E-03
   0.148E+04 -.496E+03 0.843E+03   -.148E+04 0.496E+03 -.841E+03   -.308E+01 0.258E-01 -.288E+01   -.295E-03 -.631E-03 -.684E-03
   0.126E+04 -.115E+04 0.395E+03   -.125E+04 0.114E+04 -.395E+03   -.482E+01 0.406E+01 -.926E+00   -.909E-03 0.121E-03 -.736E-03
   0.587E+03 0.129E+04 0.115E+04   -.587E+03 -.128E+04 -.115E+04   -.737E+00 -.154E+01 -.193E+01   0.806E-03 -.973E-04 0.563E-03
   0.152E+04 0.888E+03 0.578E+03   -.152E+04 -.886E+03 -.576E+03   -.415E+01 -.179E+01 -.156E+01   0.113E-02 -.114E-02 0.565E-03
   0.562E+03 0.408E+03 0.171E+04   -.560E+03 -.407E+03 -.170E+04   -.168E+01 -.403E+00 -.446E+01   0.682E-03 -.926E-03 0.385E-03
   0.639E+03 -.556E+03 0.149E+04   -.637E+03 0.556E+03 -.149E+04   -.194E+01 0.336E+00 -.112E+01   0.330E-03 -.131E-02 -.126E-02
   0.510E+03 -.128E+04 0.102E+04   -.509E+03 0.128E+04 -.101E+04   -.189E+01 0.181E+01 -.926E+00   0.519E-04 -.108E-02 -.959E-03
   0.166E+04 0.469E+02 0.475E+02   -.165E+04 -.474E+02 -.476E+02   -.261E+01 0.491E+00 0.101E+00   0.803E-03 -.184E-02 -.111E-03
   0.131E+04 -.757E+03 -.200E+03   -.131E+04 0.756E+03 0.201E+03   -.532E+00 0.236E+00 -.707E+00   0.108E-03 -.728E-03 -.409E-03
   -.309E+03 -.139E+03 0.166E+04   0.308E+03 0.138E+03 -.166E+04   0.104E+01 0.143E+00 -.222E+01   -.181E-03 -.811E-03 -.854E-03
   -.230E+03 -.112E+04 0.132E+04   0.228E+03 0.112E+04 -.132E+04   0.160E+01 0.201E+01 -.253E+01   0.798E-03 -.175E-02 0.149E-03
   -.478E+03 0.114E+04 0.134E+04   0.477E+03 -.113E+04 -.134E+04   0.104E+01 -.319E+01 -.269E+01   0.375E-03 0.244E-03 0.961E-03
   0.552E+03 0.694E+03 0.896E+02   -.551E+03 -.693E+03 -.891E+02   -.114E+01 -.663E+00 -.533E+00   0.138E-02 -.137E-02 -.590E-03
   0.498E+03 0.169E+04 0.264E+03   -.498E+03 -.169E+04 -.264E+03   -.729E-01 -.331E+01 -.260E+00   -.272E-03 0.205E-03 0.947E-03
   0.559E+03 -.160E+04 0.151E+02   -.558E+03 0.159E+04 -.145E+02   -.842E+00 0.255E+01 -.648E+00   -.511E-03 -.172E-03 -.207E-03
   0.440E+03 -.396E+03 0.313E+03   -.440E+03 0.395E+03 -.312E+03   -.528E+00 0.676E+00 -.104E+01   0.948E-03 -.233E-02 -.940E-03
   -.424E+03 0.157E+04 0.532E+03   0.423E+03 -.157E+04 -.532E+03   0.628E+00 -.231E+01 -.893E-01   0.807E-03 0.566E-03 -.156E-02
   0.140E+04 0.972E+03 -.413E+03   -.140E+04 -.971E+03 0.413E+03   -.244E+01 -.118E+01 0.565E+00   -.423E-04 -.736E-03 0.840E-03
   0.156E+04 0.298E+03 -.844E+03   -.156E+04 -.298E+03 0.844E+03   -.416E+01 -.203E+00 0.335E+00   0.187E-03 -.290E-02 0.120E-02
   -.641E+03 -.326E+03 0.478E+03   0.640E+03 0.325E+03 -.477E+03   0.160E+01 0.909E+00 -.103E+01   0.199E-02 -.282E-02 0.775E-03
   -.268E+03 -.142E+04 0.461E+03   0.267E+03 0.142E+04 -.461E+03   0.672E+00 0.462E+00 -.275E-01   0.134E-02 -.682E-03 -.647E-03
   -.110E+04 -.587E+03 0.126E+04   0.110E+04 0.585E+03 -.126E+04   0.169E+01 0.178E+01 -.292E+01   -.259E-03 -.496E-03 0.869E-03
   0.617E+03 -.114E+04 -.713E+03   -.618E+03 0.114E+04 0.712E+03   0.580E+00 0.434E+00 0.130E+01   -.309E-03 -.955E-03 0.226E-03
   -.182E+02 0.372E+03 0.843E+03   0.188E+02 -.371E+03 -.841E+03   -.592E+00 -.436E+00 -.132E+01   0.134E-02 -.835E-03 -.950E-03
   0.142E+04 -.559E+03 -.890E+03   -.141E+04 0.558E+03 0.890E+03   -.328E+01 0.103E+01 0.354E+00   -.112E-02 0.536E-03 0.131E-02
   -.123E+04 -.113E+04 0.618E+03   0.123E+04 0.113E+04 -.617E+03   0.253E+01 0.228E+01 -.789E+00   0.439E-03 -.408E-03 0.217E-03
   -.118E+04 0.491E+03 0.119E+04   0.118E+04 -.489E+03 -.119E+04   0.351E+01 -.282E+01 -.213E+01   -.416E-04 -.107E-03 0.907E-03
   -.120E+04 0.838E+03 0.581E+03   0.119E+04 -.839E+03 -.581E+03   0.107E+01 0.603E+00 -.420E+00   0.863E-03 0.390E-03 0.290E-04
   -.114E+04 -.138E+04 -.127E+03   0.113E+04 0.138E+04 0.127E+03   0.310E+01 0.389E+01 0.644E+00   0.108E-02 0.691E-03 0.107E-02
   -.280E+03 0.134E+04 -.422E+03   0.280E+03 -.134E+04 0.422E+03   -.213E+00 -.818E+00 0.263E+00   -.209E-03 -.377E-02 -.303E-02
   -.476E+03 0.403E+03 -.243E+03   0.475E+03 -.403E+03 0.242E+03   0.161E+01 -.625E+00 0.918E+00   -.250E-03 -.389E-02 0.177E-02
   0.481E+03 0.154E+04 -.671E+03   -.481E+03 -.153E+04 0.668E+03   -.300E+00 -.499E+01 0.235E+01   -.386E-02 0.599E-03 0.197E-02
   -.173E+04 0.112E+02 0.401E+03   0.173E+04 -.112E+02 -.399E+03   0.332E+01 -.150E-01 -.216E+01   0.183E-02 0.190E-03 0.378E-03
   -.295E+03 -.569E+03 -.355E+03   0.294E+03 0.568E+03 0.354E+03   0.730E+00 0.157E+01 0.527E+00   0.811E-03 -.226E-02 -.469E-03
   0.630E+03 0.840E+03 -.120E+04   -.630E+03 -.839E+03 0.120E+04   -.419E+00 -.730E+00 0.609E+00   0.213E-02 -.146E-03 -.294E-02
   0.482E+03 0.138E+02 -.609E+03   -.481E+03 -.138E+02 0.608E+03   -.824E+00 0.214E-01 0.831E+00   0.114E-02 -.140E-02 -.276E-03
   0.592E+03 0.200E+03 -.164E+04   -.591E+03 -.199E+03 0.163E+04   -.796E+00 -.731E+00 0.379E+01   -.211E-02 -.155E-02 -.563E-03
   -.231E+03 -.164E+04 -.416E+03   0.231E+03 0.164E+04 0.416E+03   0.325E+00 0.251E+01 0.658E+00   0.146E-03 -.217E-03 -.208E-03
   0.550E+03 -.667E+03 -.149E+04   -.548E+03 0.665E+03 0.149E+04   -.149E+01 0.165E+01 0.469E+01   -.443E-03 0.246E-03 0.180E-02
   -.156E+04 -.466E+03 -.353E+03   0.156E+04 0.466E+03 0.353E+03   0.774E+00 0.149E+00 -.309E+00   0.196E-03 -.581E-03 0.453E-03
   -.120E+04 0.142E+04 -.714E+02   0.120E+04 -.142E+04 0.708E+02   0.323E+01 -.380E+01 0.552E+00   0.160E-02 0.661E-03 -.916E-03
   -.357E+03 0.120E+04 -.127E+04   0.356E+03 -.119E+04 0.126E+04   0.165E+01 -.414E+01 0.431E+01   -.764E-03 -.224E-03 -.234E-02
   -.113E+04 -.839E+03 -.105E+04   0.113E+04 0.837E+03 0.105E+04   0.202E+01 0.257E+01 0.272E+01   -.600E-04 -.673E-03 0.747E-03
   -.125E+04 0.301E+02 -.116E+04   0.125E+04 -.300E+02 0.116E+04   0.105E+01 -.605E-01 0.768E+00   -.471E-03 -.274E-02 -.641E-03
   -.166E+04 0.467E+03 -.345E+03   0.165E+04 -.466E+03 0.345E+03   0.245E+01 -.122E+01 0.183E+00   -.624E-03 -.918E-05 0.106E-02
   -.367E+03 -.296E+03 -.144E+04   0.367E+03 0.294E+03 0.144E+04   -.186E+00 0.118E+01 0.174E+01   0.547E-03 -.276E-03 0.414E-03
   -.259E+03 -.117E+04 -.126E+04   0.258E+03 0.117E+04 0.126E+04   0.124E+01 0.337E+01 0.387E+01   -.302E-03 0.987E-03 0.110E-03
   -.421E+03 0.427E+03 -.148E+04   0.420E+03 -.426E+03 0.148E+04   0.849E+00 -.805E+00 0.236E+00   0.762E-03 -.135E-02 0.175E-02
   -.119E+04 0.896E+03 -.100E+04   0.118E+04 -.893E+03 0.100E+04   0.148E+01 -.306E+01 0.176E+01   -.124E-02 0.534E-03 -.231E-02
   0.638E+00 0.208E+01 0.225E+01   -.159E-11 -.136E-11 -.398E-11   -.527E+00 -.212E+01 -.242E+01   0.113E-01 -.389E-01 -.293E-02

 POSITION                                       TOTAL-FORCE (eV/Angst)
      9.02712     10.78435      9.01799         0.001861      0.001445     -0.003624
      8.39835     13.40435      9.75633        -0.002066      0.001827      0.004446
      7.97354     16.00993     10.57015        -0.001888      0.001035     -0.001513
     10.25719      8.22058      8.67311         0.000721      0.000760     -0.000563
      7.92208      8.56716     10.25235         0.001240     -0.001198     -0.000860
     10.73880     10.26058      6.75847         0.003734     -0.001095      0.004123
     10.65930     12.86534      7.99582        -0.001151     -0.004808     -0.001445
     10.44643     15.34949      9.35315        -0.001886     -0.001854      0.003703
      8.22447     11.29122     11.76758         0.001617      0.000734     -0.000782
      8.83270     14.08468     12.42709        -0.003120     -0.002284     -0.006986
     13.12338     11.81828      7.06115        -0.008017     -0.003077     -0.007396
     12.88981     14.48365      8.27734         0.001650     -0.007157      0.006126
     13.15693      8.89325      7.51076         0.002197     -0.000816      0.001858
     10.35774      9.60080     11.39668        -0.004110     -0.000673      0.001023
      9.99312      6.83255     11.22598         0.003802      0.002306      0.005876
     10.31602     16.48559     11.96564         0.003902      0.000022     -0.000849
     10.84559     12.57066     10.95736        -0.004204     -0.001171      0.001972
     12.52843      7.96636     10.22501         0.005432     -0.001122     -0.004135
      8.34661      8.49040     12.98207         0.004816      0.006867      0.002205
      7.94325     10.79262     14.59197         0.004635      0.000452     -0.000397
     13.64790     12.69180     10.28213         0.009672     -0.004770      0.006229
     12.79899     15.63123     10.86913         0.000282      0.005942      0.003853
     15.40967     13.29065      7.68336        -0.003318      0.001817      0.013683
     10.51416     15.11764     14.41302         0.004347     -0.002841     -0.003054
     11.93088     10.60738      9.29292         0.005354      0.000412     -0.012922
      8.39979     13.46193     15.11663        -0.007624      0.004442      0.007648
     15.39768     14.89733      9.91463        -0.000654     -0.002759      0.002273
     15.60586     10.57392      7.28491        -0.001161     -0.003924      0.000463
     14.64706      9.86237      9.79128         0.005328      0.005626     -0.003025
     15.11895     16.23940     12.34027         0.002447      0.004835      0.009483
     12.07425      8.12991     13.09390         0.002386     -0.028025     -0.020291
     12.86974     10.67391     12.11682        -0.000692     -0.013125      0.004219
     10.04279      6.52485     14.08732        -0.006928     -0.001009      0.008027
     16.42375     12.10331      9.99950         0.008376      0.007894      0.004280
     12.64509     13.54540     12.91446        -0.002816     -0.000694     -0.001106
     10.11883      9.15563     15.05606        -0.006774      0.014767     -0.037758
     10.50469     11.75982     13.66465        -0.000442      0.005084     -0.001479
      9.99529     11.66177     16.47447        -0.008954      0.007531     -0.001013
     12.64038     16.69592     13.52589        -0.003039     -0.004305     -0.004668
     10.09882     14.45393     17.12738        -0.000855     -0.000353      0.003660
     15.62988     13.50509     12.41447         0.002227      0.007013      0.002272
     14.68368      8.09281     11.92450         0.004077     -0.002554     -0.009177
     12.35706      7.69903     15.79216         0.002891     -0.012401     -0.006877
     14.42729     14.82987     14.67493        -0.002282      0.002689      0.002880
     14.61647     12.03542     14.63741        -0.009749     -0.008135      0.005466
     15.72675     10.71682     12.36198        -0.003975      0.007927      0.000848
     12.29341     13.26920     15.77603         0.003028     -0.005034      0.006704
     12.35859     16.04076     16.27593        -0.003820      0.004868     -0.004967
     12.43636     10.52862     15.68074         0.028130      0.005424      0.024141
     14.43923      9.24634     14.41006        -0.024627      0.013464     -0.002573
    total drift:                                0.122339     -0.077558     -0.177665

  FREE ENERGIE OF THE ION-ELECTRON SYSTEM (eV)
  free  energy   TOTEN  =      -108.79161170 eV

  energy  without entropy=     -108.79161170  energy(sigma->0) =     -108.79161170

 d Force = 0.7095642E-06[ 0.139E-05, 0.285E-07]  d Energy =-0.1150826E-04 0.122E-04
 d Force = 0.1348482E-02[ 0.135E-02, 0.135E-02]  d Ewald  = 0.1348482E-02-0.407E-09

 reached required accuracy - stopping structural energy minimisation