 vasp.5.3.5 31Mar14 (build Feb 01 2018 12:10:03) gamma-only

 executed on             LinuxIFC date 2019.03.24  21:06:47

 INCAR:
 POTCAR:    PAW_PBE Ag 02Apr2005
 POTCAR:    PAW_PBE Ag 02Apr2005
   VRHFIN =Ag : s1 d10

   TITEL  = PAW_PBE Ag 02Apr2005
   POMASS =  107.868; ZVAL   =   11.000    mass and valenz
   ENMAX  =  249.844; ENMIN  =  187.383 eV

  PAW_PBE Ag 02Apr2005                  :

 POSCAR: Pt49, -247.06029033 <s> Ag </s>
  positions in direct lattice
 exchange correlation table for  LEXCH =        8
   RHO(1)=    0.500       N(1)  =     2000
   RHO(2)=  100.500       N(2)  =     4000

 ion  position               nearest neighbor table
   1  0.667  0.450  0.362-  13 2.64   2 2.72   7 2.86   5 2.95   6 3.03
   2  0.605  0.546  0.327-  15 2.67   3 2.72   1 2.72   9 2.87  10 2.92   7 3.02   5 3.09
   3  0.636  0.650  0.376-  16 2.63   2 2.72  10 2.90   5 2.92  11 2.94   8 3.43
   4  0.683  0.363  0.500-  13 2.64  17 2.72  18 2.86  12 2.93   6 2.99
   5  0.671  0.549  0.445-  22 2.85  14 2.89   3 2.92  13 2.95   1 2.95  12 2.98  16 3.05   2 3.09
                            15 3.39
   6  0.604  0.339  0.399-  13 2.67  20 2.78   7 2.79  18 2.80   4 2.99   1 3.03
   7  0.545  0.429  0.340-   9 2.78   6 2.79  15 2.82  24 2.86   1 2.86  20 2.89   2 3.02  13 3.07

   8  0.631  0.720  0.508-  16 2.63  23 2.73  36 2.89  14 2.93  11 2.95   3 3.43
   9  0.486  0.526  0.297-  24 2.76  27 2.76   7 2.78  10 2.78  15 2.83   2 2.87
  10  0.514  0.633  0.347-   9 2.78  11 2.82  27 2.85  15 2.88   3 2.90  33 2.90   2 2.92  16 3.05

  11  0.545  0.732  0.413-  16 2.67  33 2.77  10 2.82  36 2.82   3 2.94   8 2.95
  12  0.683  0.479  0.554-  22 2.88   4 2.93  19 2.93  31 2.93  13 2.95  14 2.96   5 2.98  17 3.09
                            26 3.32
  13  0.606  0.439  0.460-  22 2.63   1 2.64   4 2.64   6 2.67  15 2.89  26 2.90   5 2.95  12 2.95
                             7 3.07  18 3.11  28 3.26  20 3.46
  14  0.666  0.607  0.557-  22 2.86   5 2.89   8 2.93  12 2.96  21 2.97  31 2.98  23 3.02  16 3.07
                            25 3.38
  15  0.529  0.527  0.413-   2 2.67  22 2.68  28 2.76  35 2.78   7 2.82   9 2.83  16 2.86  10 2.88
                            13 2.89  27 3.12  24 3.14   5 3.39
  16  0.569  0.631  0.468-  22 2.61   8 2.63   3 2.63  11 2.67  15 2.86  25 2.86  36 3.02  10 3.05
                             5 3.05  14 3.07  35 3.08  33 3.31
  17  0.638  0.365  0.610-  26 2.66   4 2.72  19 2.72  29 2.85  18 2.94  34 2.94  12 3.09
  18  0.566  0.321  0.514-  29 2.79   6 2.80  26 2.82  30 2.85   4 2.86  20 2.88  17 2.94  13 3.11

[...]

  21  0.649  0.617  0.686-  31 2.64  23 2.72  44 2.85  14 2.97  39 3.02
  22  0.574  0.531  0.521-  16 2.61  31 2.63  13 2.63  25 2.67  15 2.68  26 2.69   5 2.85  14 2.86
                            12 2.88  35 3.08  40 3.09  28 3.11
  23  0.593  0.698  0.619-  25 2.66  21 2.72   8 2.73  37 2.89  36 2.93  14 3.02  44 3.09
  24  0.425  0.449  0.368-   9 2.76  32 2.79   7 2.86  20 2.86  38 2.86  28 2.89  27 2.93  15 3.14

  25  0.521  0.615  0.582-  23 2.66  22 2.67  40 2.77  35 2.78  37 2.80  44 2.82  16 2.86  31 2.87
                            36 2.88  48 3.13  46 3.14  14 3.38
  26  0.549  0.428  0.572-  17 2.66  22 2.69  28 2.76  40 2.77  18 2.82  34 2.84  29 2.87  13 2.90
                            31 2.90  30 3.15  41 3.17  12 3.32
  27  0.408  0.576  0.374-   9 2.76  43 2.79  10 2.85  38 2.85  33 2.86  35 2.88  24 2.93  15 3.12

[...]

  39  0.585  0.521  0.749-  31 2.67  45 2.77  44 2.79  34 2.80  19 2.99  21 3.02
  40  0.462  0.510  0.594-  45 2.75  28 2.76  25 2.77  35 2.77  26 2.77  41 2.87  48 2.88  49 2.91
                            47 2.98  42 2.98  22 3.09  31 3.22
  41  0.440  0.402  0.653-  29 2.76  49 2.79  34 2.85  45 2.85  42 2.87  40 2.87  30 2.92  26 3.17

[...]

  49  0.359  0.493  0.666-  45 2.77  47 2.78  42 2.78  48 2.79  41 2.79  40 2.91

  LATTYP: Found a simple cubic cell.
 ALAT       =    22.9106345919

  Lattice vectors:

 A1 = (  22.9106345919,   0.0000000000,   0.0000000000)
 A2 = (   0.0000000000,  22.9106345919,   0.0000000000)
 A3 = (   0.0000000000,   0.0000000000,  22.9106345919)

Analysis of symmetry for initial positions (statically):
 Subroutine PRICEL returns:
 Original cell was already a primitive cell.

 Routine SETGRP: Setting up the symmetry group for a
 simple cubic supercell.

 Subroutine GETGRP returns: Found  1 space group operations
 (whereof  1 operations were pure point group operations)
 out of a pool of 48 trial point group operations.

The static configuration has the point symmetry C_1 .

Analysis of symmetry for dynamics (positions and initial velocities):
 Subroutine PRICEL returns:
 Original cell was already a primitive cell.

 Routine SETGRP: Setting up the symmetry group for a
 simple cubic supercell.

 Subroutine GETGRP returns: Found  1 space group operations
 (whereof  1 operations were pure point group operations)
 out of a pool of 48 trial point group operations.

The dynamic configuration has the point symmetry C_1 .

Analysis of magnetic symmetry:
 Subroutine PRICEL returns:
 Original cell was already a primitive cell.

 Subroutine MAGSYM returns: Found  1 space group operations
 (whereof  1 operations were pure point group operations)
 out of a pool of  1 trial space group operations
 (whereof  1 operations were pure point group operations)
 and found also     1 'primitive' translations

The magnetic configuration has the point symmetry C_1 .

 KPOINTS: Gamma-point only
  k-points in reciprocal lattice
Space group operators:
 irot       det(A)        alpha          n_x          n_y          n_z        tau_x        tau_y        tau_z
    1     1.000000     0.000000     1.000000     0.000000     0.000000     0.000000     0.000000     0.000000

 I would recommend the setting:
   dimension x,y,z NGX =    89 NGY =   89 NGZ =   89
 SYSTEM =  unknown system
 POSCAR =  Pt49, -247.06029033 <s> Ag </s>

 Startparameter for this run:
   NWRITE =      2    write-flag & timer
   PREC   = normal    normal or accurate (medium, high low for compatibility)
   ISTART =      0    job   : 0-new  1-cont  2-samecut
   ICHARG =      2    charge: 1-file 2-atom 10-const
   ISPIN  =      2    spin polarized calculation?
   LNONCOLLINEAR =      F non collinear calculations
   LSORBIT =      F    spin-orbit coupling
   INIWAV =      1    electr: 0-lowe 1-rand  2-diag
   LASPH  =      F    aspherical Exc in radial PAW
   METAGGA=      F    non-selfconsistent MetaGGA calc.

 Electronic Relaxation 1
   ENCUT  =  249.8 eV  18.36 Ry    4.29 a.u.  29.53 29.53 29.53*2*pi/ulx,y,z
   ENINI  =  249.8     initial cutoff
   ENAUG  =  412.5 eV  augmentation charge cutoff
   NELM   =     60;   NELMIN=  2; NELMDL= -5     # of ELM steps
   EDIFF  = 0.1E-03   stopping-criterion for ELM
   LREAL  =      F    real-space projection
   NLSPLINE    = F    spline interpolate recip. space projectors
   LCOMPAT=      F    compatible to vasp.4.4
   GGA_COMPAT  = T    GGA compatible to vasp.4.4-vasp.4.6
   LMAXPAW     = -100 max onsite density
   LMAXMIX     =    2 max onsite mixed and CHGCAR
   VOSKOWN=      0    Vosko Wilk Nusair interpolation
   ROPT   =    0.00000
 Ionic relaxation
   EDIFFG = 0.1E-02   stopping-criterion for IOM
   NSW    =   1000    number of steps for IOM
   NBLOCK =      1;   KBLOCK =   1000    inner block; outer block
   IBRION =      2    ionic relax: 0-MD 1-quasi-New 2-CG
   NFREE  =      1    steps in history (QN), initial steepest desc. (CG)
   ISIF   =      2    stress and relaxation
   IWAVPR =     11    prediction:  0-non 1-charg 2-wave 3-comb
   ISYM   =      2    0-nonsym 1-usesym 2-fastsym
   LCORR  =      T    Harris-Foulkes like correction to forces

   POTIM  = 0.1000    time-step for ionic-motion
   TEIN   =    0.0    initial temperature
   TEBEG  =    0.0;   TEEND  =   0.0 temperature during run
   SMASS  =  -3.00    Nose mass-parameter (am)
   estimated Nose-frequenzy (Omega)   =  0.10E-29 period in steps =****** mass=  -0.120E-25a.u.
   SCALEE = 1.0000    scale energy and forces
   NPACO  =    256;   APACO  = 16.0  distance and # of slots for P.C.
   PSTRESS=    0.0 pullay stress

  Mass of Ions in am
   POMASS = 107.87
  Ionic Valenz
   ZVAL   =  11.00
  Atomic Wigner-Seitz radii
  virtual crystal weights
   VCA    =   1.00
   NELECT =     539.0000    total number of electrons
   NUPDOWN=      -1.0000    fix difference up-down

 DOS related values:
   EMIN   =  10.00;   EMAX   =-10.00  energy-range for DOS
   EFERMI =   0.00
   ISMEAR =     0;   SIGMA  =   0.00  broadening in eV -4-tet -1-fermi 0-gaus

 Electronic relaxation 2 (details)
   IALGO  =     38    algorithm
   LDIAG  =      T    sub-space diagonalisation (order eigenvalues)
   LSUBROT=      F    optimize rotation matrix (better conditioning)
   TURBO    =      0    0=normal 1=particle mesh
   IRESTART =      0    0=no restart 2=restart with 2 vectors
   NREBOOT  =      0    no. of reboots
   NMIN     =      0    reboot dimension
   EREF     =   0.00    reference energy to select bands
   IMIX   =      4    mixing-type and parameters
     AMIX     =   0.40;   BMIX     =  1.00
     AMIX_MAG =   1.60;   BMIX_MAG =  1.00
     AMIN     =   0.10
     WC   =   100.;   INIMIX=   1;  MIXPRE=   1;  MAXMIX= -45

 Intra band minimization:
   WEIMIN = 0.0010     energy-eigenvalue tresh-hold
   EBREAK =  0.72E-07  absolut break condition
   DEPER  =   0.30     relativ break condition

   TIME   =   0.40     timestep for ELM

  volume/ion in A,a.u.               =     245.42      1656.20
  Fermi-wavevector in a.u.,A,eV,Ry     =   0.581524  1.098920  4.601077  0.338170
  Thomas-Fermi vector in A             =   1.626064

 Write flags
   LWAVE  =      F    write WAVECAR
   LCHARG =      F    write CHGCAR
   LVTOT  =      F    write LOCPOT, total local potential
   LVHAR  =      F    write LOCPOT, Hartree potential only
   LELF   =      F    write electronic localiz. function (ELF)
   LORBIT =      0    0 simple, 1 ext, 2 COOP (PROOUT)

 Dipole corrections
   LMONO  =      F    monopole corrections only (constant potential shift)
   LDIPOL =      F    correct potential (dipole corrections)
   IDIPOL =      0    1-x, 2-y, 3-z, 4-all directions
   EPSILON=  1.0000000 bulk dielectric constant

 Exchange correlation treatment:
   GGA     =    PE    GGA type
   VOSKOWN=      0    Vosko Wilk Nusair interpolation
   LHFCALC =     F    Hartree Fock is set to
   LHFONE  =     F    Hartree Fock one center treatment
   AEXX    =    0.0000 exact exchange contribution

 Linear response parameters
   LEPSILON=     F    determine dielectric tensor
   LRPA    =     F    only Hartree local field effects (RPA)
   LNABLA  =     F    use nabla operator in PAW spheres
   LVEL    =     F    velocity operator in full k-point grid
   LINTERFAST=   F  fast interpolation
   KINTER  =     0    interpolate to denser k-point grid
   CSHIFT  =0.1000    complex shift for real part using Kramers Kronig
   OMEGAMAX=  -1.0    maximum frequency
   DEG_THRESHOLD= 0.2000000E-02 threshold for treating states as degnerate
   RTIME   =    0.100 relaxation time in fs

 Orbital magnetization related:
   ORBITALMAG=     F  switch on orbital magnetization
[...]
       1 -81.8165       2 -81.9547       3 -81.8607       4 -81.8254       5 -82.1168
       6 -81.9388       7 -81.9819       8 -81.8622       9 -81.9458      10 -82.0599
      11 -81.9351      12 -82.0844      13 -82.3815      14 -82.1113      15 -82.3845
      16 -82.3806      17 -81.9246      18 -82.0702      19 -81.8368      20 -82.0477
      21 -81.8303      22 -82.6104      23 -81.9594      24 -82.0034      25 -82.3832
      26 -82.3885      27 -82.0134      28 -82.4293      29 -81.9556      30 -82.0046
      31 -82.3846      32 -82.0160      33 -82.0592      34 -82.0741      35 -82.4389
      36 -82.0581      37 -81.9496      38 -82.0490      39 -81.9448      40 -82.4324
      41 -82.0042      42 -82.0275      43 -82.0237      44 -81.9782      45 -82.0451
      46 -82.0146      47 -82.0571      48 -81.9983      49 -82.0138

 E-fermi :  -3.1645     XC(G=0):  -1.3654     alpha+bet : -0.9353

[...]

 spin component 2

 k-point     1 :       0.0000    0.0000    0.0000
  band No.  band energies     occupation
      1     -10.0157      1.00000
      2      -9.3289      1.00000
      3      -9.3211      1.00000
      4      -9.3170      1.00000
      5      -9.3092      1.00000
      6      -9.3014      1.00000
      7      -9.1811      1.00000
      8      -9.1158      1.00000
      9      -9.1088      1.00000
     10      -8.9647      1.00000
     11      -8.9616      1.00000
     12      -8.9544      1.00000
     13      -8.9223      1.00000
     14      -8.8404      1.00000
     15      -8.8141      1.00000
     16      -8.8029      1.00000
     17      -8.7366      1.00000
     18      -8.7164      1.00000
     19      -8.7136      1.00000
     20      -8.7055      1.00000
     21      -8.6969      1.00000
     22      -8.6874      1.00000
     23      -8.6401      1.00000
     24      -8.6344      1.00000
     25      -8.6161      1.00000
     26      -8.6075      1.00000
     27      -8.6060      1.00000
     28      -8.5989      1.00000
     29      -8.5436      1.00000
     30      -8.5223      1.00000
     31      -8.5184      1.00000
     32      -8.5148      1.00000
     33      -8.4994      1.00000
     34      -8.4958      1.00000
     35      -8.4934      1.00000
     36      -8.4632      1.00000
     37      -8.4555      1.00000
     38      -8.4136      1.00000
     39      -8.4124      1.00000
     40      -8.3829      1.00000
     41      -8.3778      1.00000
     42      -8.3716      1.00000
     43      -8.3675      1.00000
     44      -8.2926      1.00000
     45      -8.2874      1.00000
     46      -8.2743      1.00000
     47      -8.2735      1.00000
     48      -8.2526      1.00000
     49      -8.2266      1.00000
     50      -8.2217      1.00000
     51      -8.2144      1.00000
     52      -8.1607      1.00000
     53      -8.1464      1.00000
     54      -8.1388      1.00000
     55      -8.1276      1.00000
     56      -8.1101      1.00000
     57      -8.1024      1.00000
     58      -8.0861      1.00000
     59      -8.0593      1.00000
     60      -8.0544      1.00000
[...]
    334       1.2680      0.00000
    335       1.2717      0.00000
    336       1.3469      0.00000
    337       1.3787      0.00000
    338       1.4167      0.00000
    339       1.4325      0.00000
    340       1.4389      0.00000
    341       1.4680      0.00000
    342       1.4928      0.00000
    343       1.5071      0.00000
    344       1.5385      0.00000
    345       1.5526      0.00000
    346       1.5576      0.00000
    347       1.5667      0.00000
    348       1.6035      0.00000

[...]

 soft charge-density along one line, spin component           2
         0         1         2         3         4         5         6         7         8         9
 total charge-density along one line

------------------------ aborting loop because EDIFF is reached ----------------------------------------

  FORCE on cell =-STRESS in cart. coord.  units (eV):
  Direction    XX          YY          ZZ          XY          YZ          ZX
  Alpha Z   169.82240   169.82240   169.82240
  Ewald   32511.94060 56619.78477 57477.62626 -2546.28950   140.76378   365.85108
  Hartree 49541.80431 72551.17204 73377.79789 -2384.04608   137.25456   336.60272
  E(xc)   -2842.98521 -2841.93095 -2841.87759    -0.20503     0.00350     0.04946
  Local  -90105.63499************************  4929.64721  -278.89831  -702.03245
  n-local  -509.62213  -506.09901  -505.64572    -0.69883     0.31994     0.20862
  augment  4506.39572  4503.17050  4503.26425     0.53314     0.10450    -0.18736
  Kinetic  6710.93416  6704.61873  6705.06947     0.94307     0.40547    -0.31093
  Fock        0.00000     0.00000     0.00000     0.00000     0.00000     0.00000
  Total     -17.34513   -17.34945   -17.37638    -0.11602    -0.04658     0.18115
  in kB      -2.31088    -2.31145    -2.31504    -0.01546    -0.00621     0.02413

 VOLUME and BASIS-vectors are now :
  energy-cutoff  :      249.84
  volume of cell :    12025.73
      direct lattice vectors                 reciprocal lattice vectors
    22.910634592  0.000000000  0.000000000     0.043647853  0.000000000  0.000000000
     0.000000000 22.910634592  0.000000000     0.000000000  0.043647853  0.000000000
     0.000000000  0.000000000 22.910634592     0.000000000  0.000000000  0.043647853

  length of vectors
    22.910634592 22.910634592 22.910634592     0.043647853  0.043647853  0.043647853

 FORCES acting on ions
    electron-ion (+dipol)            ewald-force                    non-local-force                 convergence-correction
   -.143E+04 0.417E+03 0.105E+04   0.143E+04 -.416E+03 -.105E+04   0.424E+01 -.101E+01 -.117E+01   -.104E-01 -.138E-01 0.987E-02
   -.919E+03 -.214E+03 0.154E+04   0.918E+03 0.214E+03 -.153E+04   0.140E+01 0.263E+00 -.319E+01   -.909E-02 -.174E-01 -.675E-02
   -.123E+04 -.906E+03 0.100E+04   0.123E+04 0.904E+03 -.999E+03   0.392E+01 0.182E+01 -.125E+01   -.207E-01 -.343E-02 -.165E-02
   -.153E+04 0.966E+03 0.179E+03   0.153E+04 -.965E+03 -.177E+03   0.438E+01 -.790E+00 -.141E+01   -.131E-01 0.111E-01 -.769E-02
   -.155E+04 -.258E+03 0.555E+03   0.154E+04 0.257E+03 -.554E+03   0.248E+01 0.629E+00 -.109E+01   -.331E-01 -.461E-02 -.512E-02
   -.697E+03 0.140E+04 0.966E+03   0.695E+03 -.140E+04 -.963E+03   0.199E+01 -.402E+01 -.267E+01   -.474E-01 0.164E-01 -.107E-01
   -.208E+03 0.806E+03 0.158E+04   0.208E+03 -.805E+03 -.157E+04   0.383E+00 -.123E+01 -.251E+01   0.470E-02 -.136E-02 -.162E-01
   -.119E+04 -.136E+04 0.823E+02   0.119E+04 0.136E+04 -.818E+02   0.387E+01 0.217E+01 -.473E+00   -.206E-01 -.932E-02 0.219E-02
   0.341E+03 -.223E+02 0.180E+04   -.340E+03 0.220E+02 -.180E+04   -.824E+00 0.287E+00 -.522E+01   -.192E-01 -.758E-02 0.273E-02
   0.668E+02 -.950E+03 0.151E+04   -.662E+02 0.948E+03 -.151E+04   -.612E+00 0.156E+01 -.254E+01   -.727E-02 -.229E-02 0.407E-02
   -.205E+03 -.160E+04 0.848E+03   0.205E+03 0.160E+04 -.846E+03   0.689E+00 0.454E+01 -.238E+01   0.138E-01 -.116E-01 0.163E-01
   -.164E+04 0.207E+03 -.189E+03   0.163E+04 -.207E+03 0.189E+03   0.244E+01 -.249E+00 0.280E+00   0.169E-02 -.110E-02 -.133E-02
   -.668E+03 0.682E+03 0.512E+03   0.667E+03 -.680E+03 -.511E+03   0.458E+00 -.103E+01 -.726E+00   0.262E-01 -.100E-01 -.119E-01
   -.152E+04 -.661E+03 -.229E+03   0.151E+04 0.659E+03 0.229E+03   0.249E+01 0.134E+01 0.361E+00   -.381E-01 0.695E-02 -.882E-02
   0.741E+01 -.379E+02 0.982E+03   -.763E+01 0.377E+02 -.981E+03   0.219E+00 0.118E+00 -.138E+01   0.925E-02 -.173E-03 -.983E-02
   -.406E+03 -.882E+03 0.443E+03   0.406E+03 0.880E+03 -.442E+03   0.167E-01 0.127E+01 -.643E+00   0.545E-02 0.145E-01 -.409E-02
   -.120E+04 0.119E+04 -.690E+03   0.120E+04 -.119E+04 0.688E+03   0.135E+01 -.276E+01 0.154E+01   -.327E-03 -.105E-02 -.107E-01
   -.396E+03 0.172E+04 0.679E+02   0.396E+03 -.172E+04 -.679E+02   0.316E+00 -.319E+01 -.123E-01   0.673E-02 -.126E-02 -.139E-01
   -.148E+04 0.348E+03 -.101E+04   0.148E+04 -.349E+03 0.101E+04   0.417E+01 0.833E+00 0.169E+01   -.106E-01 -.234E-03 -.760E-02
   0.372E+03 0.151E+04 0.891E+03   -.371E+03 -.151E+04 -.890E+03   -.990E+00 -.240E+01 -.131E+01   -.688E-03 -.725E-02 -.352E-02
   -.132E+04 -.689E+03 -.105E+04   0.132E+04 0.688E+03 0.105E+04   0.401E+01 0.603E+00 0.180E+01   -.995E-02 -.174E-01 -.221E-01
   -.390E+03 -.612E+02 0.116E+02   0.390E+03 0.612E+02 -.116E+02   -.494E+00 -.638E-01 0.728E-02   -.633E-02 -.474E-02 0.194E-01
   -.819E+03 -.142E+04 -.783E+03   0.818E+03 0.141E+04 0.782E+03   0.126E+01 0.279E+01 0.168E+01   -.170E-01 0.367E-02 0.470E-02
   0.979E+03 0.669E+03 0.138E+04   -.977E+03 -.669E+03 -.137E+04   -.182E+01 -.511E+00 -.218E+01   0.123E-01 0.428E-02 -.535E-02
   0.805E+02 -.832E+03 -.529E+03   -.806E+02 0.830E+03 0.528E+03   0.102E+00 0.122E+01 0.709E+00   0.335E-02 0.182E-01 0.153E-01
   -.178E+03 0.855E+03 -.458E+03   0.177E+03 -.854E+03 0.457E+03   0.425E+00 -.117E+01 0.629E+00   0.103E-01 -.357E-02 0.669E-03
   0.115E+04 -.459E+03 0.133E+04   -.115E+04 0.459E+03 -.133E+04   -.226E+01 0.832E-01 -.187E+01   0.168E-01 -.203E-02 -.633E-02
   0.633E+03 0.631E+03 0.318E+03   -.631E+03 -.631E+03 -.317E+03   -.111E+01 -.797E+00 -.295E+00   0.147E-01 0.316E-02 0.105E-01
   -.123E+02 0.164E+04 -.873E+03   0.123E+02 -.164E+04 0.871E+03   0.111E-01 -.470E+01 0.242E+01   0.193E-01 0.360E-02 -.400E-02
   0.784E+03 0.162E+04 -.173E+03   -.783E+03 -.162E+04 0.173E+03   -.116E+01 -.250E+01 0.373E+00   0.296E-01 -.691E-02 0.187E-01
   -.586E+03 -.565E+02 -.899E+03   0.586E+03 0.564E+02 0.897E+03   0.418E+00 0.403E-01 0.131E+01   0.202E-01 -.586E-02 0.772E-02
   0.135E+04 0.121E+04 0.595E+03   -.135E+04 -.121E+04 -.594E+03   -.392E+01 -.356E+01 -.117E+01   0.158E-01 0.948E-02 0.161E-01
   0.829E+03 -.140E+04 0.778E+03   -.827E+03 0.140E+04 -.777E+03   -.166E+01 0.209E+01 -.124E+01   -.310E-02 0.256E-01 -.111E-01
   -.315E+03 0.935E+03 -.149E+04   0.314E+03 -.933E+03 0.149E+04   0.152E+00 -.179E+01 0.270E+01   -.360E-03 0.114E-01 0.426E-02
   0.800E+03 -.450E+03 0.276E+03   -.799E+03 0.450E+03 -.276E+03   -.127E+01 0.376E+00 -.256E+00   0.138E-01 0.125E-02 0.547E-02
   0.137E+03 -.176E+04 -.862E+02   -.136E+03 0.175E+04 0.861E+02   -.724E+00 0.291E+01 0.949E-01   -.160E-01 -.330E-02 0.896E-02
   0.469E+03 -.150E+04 -.100E+04   -.468E+03 0.150E+04 0.100E+04   -.116E+01 0.439E+01 0.266E+01   -.307E-01 0.186E-01 0.219E-01
   0.170E+04 0.232E+03 0.616E+03   -.170E+04 -.232E+03 -.614E+03   -.162E+01 0.131E+00 -.220E+01   -.164E-01 0.298E-02 0.989E-02
   -.555E+03 -.219E+01 -.172E+04   0.554E+03 0.222E+01 0.172E+04   0.157E+01 -.493E-01 0.495E+01   0.871E-02 0.144E-01 -.111E-01
   0.681E+03 0.121E+03 -.653E+03   -.680E+03 -.121E+03 0.652E+03   -.118E+01 -.256E+00 0.750E+00   0.138E-01 -.211E-03 -.235E-02
   0.832E+03 0.111E+04 -.119E+04   -.830E+03 -.111E+04 0.119E+04   -.120E+01 -.173E+01 0.173E+01   0.301E-01 0.186E-02 -.710E-02
   0.159E+04 0.843E+03 -.367E+03   -.158E+04 -.842E+03 0.366E+03   -.160E+01 -.149E+01 0.713E+00   -.106E-01 -.112E-01 0.103E-01
   0.165E+04 -.803E+03 0.507E+03   -.164E+04 0.801E+03 -.506E+03   -.485E+01 0.207E+01 -.135E+01   0.871E-02 -.120E-01 0.746E-02
   -.456E+02 -.864E+03 -.156E+04   0.455E+02 0.863E+03 0.156E+04   0.111E+00 0.136E+01 0.249E+01   0.505E-03 -.400E-02 -.613E-02
   0.509E+03 0.147E+03 -.170E+04   -.508E+03 -.147E+03 0.170E+04   -.118E+01 -.366E+00 0.267E+01   0.148E-01 0.798E-02 0.202E-01
   0.123E+04 -.131E+04 -.297E+03   -.122E+04 0.131E+04 0.296E+03   -.239E+01 0.156E+01 0.848E+00   0.155E-01 0.475E-02 0.825E-02
   0.175E+04 -.308E+03 -.407E+03   -.175E+04 0.306E+03 0.406E+03   -.180E+01 0.178E+01 0.998E+00   -.558E-02 0.223E-02 0.494E-02
   0.111E+04 -.730E+03 -.124E+04   -.111E+04 0.729E+03 0.124E+04   -.204E+01 0.144E+01 0.158E+01   0.115E-01 -.152E-02 -.745E-02
   0.144E+04 0.262E+03 -.122E+04   -.144E+04 -.261E+03 0.122E+04   -.419E+01 -.120E+01 0.325E+01   0.125E-01 -.739E-02 -.289E-02
   -.262E+01 -.835E+00 0.251E+00   0.909E-12 -.125E-11 0.682E-12   0.281E+01 0.786E+00 -.278E+00   -.655E-02 0.100E-01 0.243E-01

 POSITION                                       TOTAL-FORCE (eV/Angst)
     15.39331     10.19097      8.48882         0.003070     -0.003712     -0.004867
     14.01161     12.47670      7.44527        -0.001757     -0.001354     -0.005587
     14.65624     14.98987      8.73721        -0.000133     -0.002745     -0.007485
     15.72695      8.46300     11.24635         0.005085     -0.006696     -0.001553
     14.79197     12.46951     10.18041        -0.005437     -0.000450     -0.002788
     14.10401      7.64743      8.98792        -0.008129     -0.010368     -0.010621
     12.67810      9.79085      7.66645        -0.003393      0.000864     -0.006286
     14.52429     16.43469     11.50106         0.002206      0.004965      0.005476
     11.24017     12.03550      6.57426        -0.001939     -0.000326     -0.006276
     11.95623     14.55351      7.88781        -0.003413      0.002225     -0.002698
     12.65790     16.96655      9.38662         0.000165      0.008869     -0.001673
     15.10130     10.90685     12.66489         0.001085      0.001248     -0.000061
     13.44852      9.87244     10.46042        -0.012620      0.012204      0.007751
     14.67907     13.81139     12.77959        -0.004170      0.003359     -0.000864
     11.90857     12.05242      9.24572         0.002906     -0.003297      0.008030
     12.72027     14.51508     10.66572        -0.012720     -0.011406      0.004734
     14.83280      8.41457     13.96633         0.002063     -0.003815      0.002478
     13.17467      7.31340     11.74823        -0.000910     -0.002001     -0.003705
     15.49926     10.72201     15.52167         0.006524     -0.011504      0.001799
     11.33385      8.07129      9.62636        -0.006968      0.002376     -0.000193
     15.01318     13.90183     15.68362         0.005818      0.006515     -0.004591
     12.61846     12.06255     11.94470         0.000184      0.001429     -0.006620
     13.69883     16.01910     14.25578        -0.000910      0.006506      0.003788
      9.85920     10.26413      8.34119         0.000913     -0.003826      0.004698
     11.70079     14.24387     13.42332        -0.000110     -0.000197      0.000942
     12.39418      9.60545     13.22355         0.006431      0.001305     -0.003213
      9.41445     13.21332      8.45747        -0.000025      0.004289      0.004399
     10.56287     10.31493     11.11920         0.003822     -0.001594     -0.001403
     12.22108      7.15639     14.48885         0.007273     -0.004917      0.004064
     10.32565      7.77892     12.42825         0.004691      0.001429     -0.003081
     13.21493     12.05319     14.65301        -0.007965     -0.002812     -0.006743
      8.57401      8.60674     10.27723         0.004233      0.002964      0.004375
     10.15598     15.68722      9.93886        -0.002267      0.000829      0.000020
     12.95403      9.51994     16.00185        -0.000552      0.001374      0.003921
     10.13045     13.19511     11.22924         0.002407      0.006154     -0.002462
     11.76139     16.79766     12.15515        -0.003475      0.000975      0.000833
     10.85728     16.41496     14.88868        -0.005655      0.001903      0.008402
      7.97057     11.40879     10.43312         0.002045     -0.001223      0.005030
     13.67088     11.99319     17.36743         0.006455      0.002975      0.006794
     10.43574     11.67221     13.69883         0.000871      0.000182      0.005521
     10.20268      9.13742     15.01719         0.000927      0.003728      0.000522
      8.30255      9.87707     12.88828         0.002706     -0.000278      0.002257
      7.70294     14.29674     10.52223         0.004073     -0.001296     -0.000936
     12.23829     14.27811     16.24117         0.000171      0.002152     -0.000366
     10.97419     11.65379     16.45466         0.000518      0.001422     -0.000266
      9.20458     15.46704     12.71921        -0.001663     -0.001898     -0.002129
      7.85843     12.75278     12.97788         0.003404     -0.000012      0.003441
      9.49478     13.91197     15.23369        -0.001905     -0.003623     -0.000097
      8.32140     11.29042     15.42811         0.006070     -0.002895     -0.002709
    total drift:                                0.187947     -0.039202     -0.002501

  FREE ENERGIE OF THE ION-ELECTRON SYSTEM (eV)
  free  energy   TOTEN  =      -108.48798549 eV

  energy  without entropy=     -108.48798549  energy(sigma->0) =     -108.48798549

 d Force = 0.7213723E-04[ 0.222E-04, 0.122E-03]  d Energy = 0.2203120E-03-0.148E-03
 d Force =-0.7627371E+01[-0.763E+01,-0.763E+01]  d Ewald  =-0.7627371E+01 0.181E-06

 reached required accuracy - stopping structural energy minimisation