 vasp.5.3.5 31Mar14 (build Feb 01 2018 12:10:03) gamma-only

 executed on             LinuxIFC date 2019.03.24  05:44:33

 INCAR:
 POTCAR:    PAW_PBE Ag 02Apr2005
 POTCAR:    PAW_PBE Ag 02Apr2005
   VRHFIN =Ag : s1 d10

   TITEL  = PAW_PBE Ag 02Apr2005
   POMASS =  107.868; ZVAL   =   11.000    mass and valenz
   ENMAX  =  249.844; ENMIN  =  187.383 eV

  PAW_PBE Ag 02Apr2005                  :

 POSCAR: Ti47, -315.19769077 <s> Ag </s>
  positions in direct lattice
 exchange correlation table for  LEXCH =        8
   RHO(1)=    0.500       N(1)  =     2000
   RHO(2)=  100.500       N(2)  =     4000

 ion  position               nearest neighbor table
   1  0.482  0.549  0.299-   6 2.73   3 2.75   2 2.82   5 2.84  12 2.90   9 2.90   8 2.91  13 2.98

   2  0.606  0.561  0.316-  13 2.63  11 2.71   3 2.72   1 2.82   7 2.88   9 2.90
   3  0.557  0.453  0.292-   5 2.62  13 2.70   2 2.72  17 2.72   1 2.75   7 2.75
   4  0.618  0.668  0.466-  11 2.62  10 2.65  14 2.65  16 2.82   9 2.83  21 2.85
   5  0.447  0.431  0.321-   3 2.62   6 2.67  18 2.75  15 2.81   1 2.84  12 3.02  13 3.38  17 3.42

[...]

   8  0.403  0.624  0.367-  12 2.64  20 2.68   6 2.76   9 2.85   1 2.91  19 3.08
   9  0.525  0.621  0.396-  21 2.73  13 2.77   4 2.83   8 2.85  10 2.89   1 2.90   2 2.90  12 3.00
                            11 3.16  19 3.53
  10  0.509  0.696  0.498-   4 2.65  21 2.66  27 2.69   9 2.89  19 2.94  14 2.97
  11  0.649  0.563  0.428-  23 2.62   4 2.62  13 2.66   2 2.71  16 2.81   7 2.92  21 3.16   9 3.16
                            29 3.25
  12  0.438  0.524  0.416-   8 2.64  13 2.65  20 2.68   6 2.73  19 2.81  15 2.86  18 2.88   1 2.90
                            33 2.91   9 3.00   5 3.02  35 3.15  21 3.35
  13  0.552  0.502  0.401-   2 2.63  12 2.65  22 2.66  11 2.66   3 2.70   9 2.77   7 2.78  15 2.90
                             1 2.98  21 3.08  17 3.24   5 3.38
  14  0.604  0.662  0.583-   4 2.65  27 2.73  28 2.76  16 2.81  21 2.86  10 2.97  36 2.98  29 3.36

  15  0.477  0.405  0.439-  25 2.34  22 2.74  35 2.74   5 2.81  17 2.84  37 2.85  12 2.86  31 2.87
                            18 2.88  13 2.90  34 3.12
  16  0.702  0.605  0.533-  28 2.72  29 2.75  14 2.81  11 2.81   4 2.82  26 2.84  23 3.17
  17  0.573  0.363  0.371-  34 2.70   3 2.72  24 2.77   7 2.79  15 2.84  22 2.97  13 3.24  25 3.38
                             5 3.42
  18  0.356  0.426  0.402-   5 2.75  33 2.79   6 2.81  15 2.88  12 2.88  31 2.91  20 3.01  25 3.46

  19  0.411  0.610  0.502-  12 2.81  32 2.90  21 2.90  30 2.91  39 2.93  10 2.94  27 2.98  20 2.99
                            33 3.02   8 3.08   9 3.53  35 3.54
  20  0.323  0.554  0.421-  33 2.59   6 2.64   8 2.68  12 2.68  19 2.99  18 3.01  32 3.34
  21  0.537  0.582  0.510-  10 2.66   9 2.73  29 2.74  27 2.84   4 2.85  14 2.86  19 2.90  35 2.93
                            13 3.08  11 3.16  36 3.23  12 3.35
  22  0.587  0.427  0.485-  24 2.66  13 2.66  38 2.66  34 2.67  15 2.74  29 2.78  23 2.93  17 2.97
                            35 2.97  42 3.05   7 3.28  37 3.38
  23  0.707  0.475  0.477-  11 2.62  24 2.80  26 2.81  38 2.81  29 2.82   7 2.90  22 2.93  16 3.17

[...]

  28  0.674  0.586  0.648-  40 2.64  26 2.65  16 2.72  29 2.76  14 2.76  36 2.82
  29  0.624  0.516  0.562-  26 2.65  40 2.68  21 2.74  16 2.75  28 2.76  38 2.76  22 2.78  36 2.79
                            23 2.82  42 2.87  11 3.25  14 3.36  35 3.52
  30  0.372  0.659  0.615-  27 2.59  32 2.63  41 2.69  39 2.74  19 2.91  43 2.99
  31  0.382  0.375  0.518-  37 2.47  33 2.63  15 2.87  18 2.91  45 2.92  25 2.96  35 3.09  44 3.51

  32  0.304  0.579  0.565-  30 2.63  41 2.66  33 2.67  44 2.76  39 2.87  19 2.90  20 3.34
  33  0.355  0.488  0.509-  20 2.59  31 2.63  32 2.67  44 2.72  18 2.79  35 2.84  12 2.91  19 3.02
                            39 3.05
  34  0.569  0.310  0.478-  37 2.63  22 2.67  17 2.70  24 2.76  25 2.97  15 3.12
  35  0.476  0.472  0.540-  42 2.62  39 2.73  15 2.74  33 2.84  45 2.87  21 2.93  37 2.96  22 2.97
                            31 3.09  12 3.15  29 3.52  19 3.54
  36  0.552  0.562  0.651-  46 2.54  27 2.65  29 2.79  28 2.82  40 2.90  14 2.98  43 3.11  42 3.18
                            39 3.18  21 3.23
  37  0.481  0.341  0.547-  31 2.47  34 2.63  15 2.85  45 2.90  25 2.91  42 2.93  35 2.96  22 3.38

  38  0.666  0.401  0.568-  22 2.66  29 2.76  23 2.81  26 2.81  42 2.85  40 2.92  24 3.02
  39  0.416  0.546  0.615-  43 2.61  35 2.73  30 2.74  41 2.78  27 2.80  47 2.82  32 2.87  44 2.87
                            19 2.93  46 2.94  33 3.05  45 3.09  36 3.18
  40  0.644  0.475  0.672-  28 2.64  29 2.68  42 2.69  26 2.75  36 2.90  38 2.92  46 3.58
  41  0.318  0.577  0.682-  47 2.54  32 2.66  30 2.69  39 2.78  44 2.78  43 2.80
  42  0.552  0.426  0.615-  35 2.62  40 2.69  46 2.77  38 2.85  29 2.87  37 2.93  45 3.03  22 3.05
                            36 3.18
  43  0.436  0.600  0.715-  39 2.61  41 2.80  47 2.81  46 2.88  27 2.95  30 2.99  36 3.11
  44  0.314  0.470  0.621-  47 2.70  33 2.72  32 2.76  45 2.78  41 2.78  39 2.87  31 3.51
  45  0.420  0.410  0.636-  46 2.74  47 2.75  44 2.78  35 2.87  37 2.90  31 2.92  42 3.03  39 3.09

  46  0.489  0.484  0.703-  47 2.53  36 2.54  45 2.74  42 2.77  43 2.88  39 2.94  40 3.58
  47  0.378  0.489  0.720-  46 2.53  41 2.54  44 2.70  45 2.75  43 2.81  39 2.82

  LATTYP: Found a simple cubic cell.
 ALAT       =    22.5781576796

  Lattice vectors:

 A1 = (  22.5781576796,   0.0000000000,   0.0000000000)
 A2 = (   0.0000000000,  22.5781576796,   0.0000000000)
 A3 = (   0.0000000000,   0.0000000000,  22.5781576796)

Analysis of symmetry for initial positions (statically):
 Subroutine PRICEL returns:
 Original cell was already a primitive cell.

 Routine SETGRP: Setting up the symmetry group for a
 simple cubic supercell.

 Subroutine GETGRP returns: Found  1 space group operations
 (whereof  1 operations were pure point group operations)
 out of a pool of 48 trial point group operations.

The static configuration has the point symmetry C_1 .

Analysis of symmetry for dynamics (positions and initial velocities):
 Subroutine PRICEL returns:
 Original cell was already a primitive cell.

 Routine SETGRP: Setting up the symmetry group for a
 simple cubic supercell.

 Subroutine GETGRP returns: Found  1 space group operations
 (whereof  1 operations were pure point group operations)
 out of a pool of 48 trial point group operations.

The dynamic configuration has the point symmetry C_1 .

Analysis of magnetic symmetry:
 Subroutine PRICEL returns:
 Original cell was already a primitive cell.

 Subroutine MAGSYM returns: Found  1 space group operations
 (whereof  1 operations were pure point group operations)
 out of a pool of  1 trial space group operations
 (whereof  1 operations were pure point group operations)
 and found also     1 'primitive' translations

The magnetic configuration has the point symmetry C_1 .

 KPOINTS: Gamma-point only
  k-points in reciprocal lattice
Space group operators:
 irot       det(A)        alpha          n_x          n_y          n_z        tau_x        tau_y        tau_z
    1     1.000000     0.000000     1.000000     0.000000     0.000000     0.000000     0.000000     0.000000

 I would recommend the setting:
   dimension x,y,z NGX =    87 NGY =   87 NGZ =   87
 SYSTEM =  unknown system
 POSCAR =  Ti47, -315.19769077 <s> Ag </s>

 Startparameter for this run:
   NWRITE =      2    write-flag & timer
   PREC   = normal    normal or accurate (medium, high low for compatibility)
   ISTART =      0    job   : 0-new  1-cont  2-samecut
   ICHARG =      2    charge: 1-file 2-atom 10-const
   ISPIN  =      2    spin polarized calculation?
   LNONCOLLINEAR =      F non collinear calculations
   LSORBIT =      F    spin-orbit coupling
   INIWAV =      1    electr: 0-lowe 1-rand  2-diag
   LASPH  =      F    aspherical Exc in radial PAW
   METAGGA=      F    non-selfconsistent MetaGGA calc.

 Electronic Relaxation 1
   ENCUT  =  249.8 eV  18.36 Ry    4.29 a.u.  29.10 29.10 29.10*2*pi/ulx,y,z
   ENINI  =  249.8     initial cutoff
   ENAUG  =  412.5 eV  augmentation charge cutoff
   NELM   =     60;   NELMIN=  2; NELMDL= -5     # of ELM steps
   EDIFF  = 0.1E-03   stopping-criterion for ELM
   LREAL  =      F    real-space projection
   NLSPLINE    = F    spline interpolate recip. space projectors
   LCOMPAT=      F    compatible to vasp.4.4
   GGA_COMPAT  = T    GGA compatible to vasp.4.4-vasp.4.6
   LMAXPAW     = -100 max onsite density
   LMAXMIX     =    2 max onsite mixed and CHGCAR
   VOSKOWN=      0    Vosko Wilk Nusair interpolation
   ROPT   =    0.00000
 Ionic relaxation
   EDIFFG = 0.1E-02   stopping-criterion for IOM
   NSW    =   1000    number of steps for IOM
   NBLOCK =      1;   KBLOCK =   1000    inner block; outer block
   IBRION =      2    ionic relax: 0-MD 1-quasi-New 2-CG
   NFREE  =      1    steps in history (QN), initial steepest desc. (CG)
   ISIF   =      2    stress and relaxation
   IWAVPR =     11    prediction:  0-non 1-charg 2-wave 3-comb
   ISYM   =      2    0-nonsym 1-usesym 2-fastsym
   LCORR  =      T    Harris-Foulkes like correction to forces

   POTIM  = 0.1000    time-step for ionic-motion
   TEIN   =    0.0    initial temperature
   TEBEG  =    0.0;   TEEND  =   0.0 temperature during run
   SMASS  =  -3.00    Nose mass-parameter (am)
   estimated Nose-frequenzy (Omega)   =  0.10E-29 period in steps =****** mass=  -0.116E-25a.u.
   SCALEE = 1.0000    scale energy and forces
   NPACO  =    256;   APACO  = 16.0  distance and # of slots for P.C.
   PSTRESS=    0.0 pullay stress

  Mass of Ions in am
   POMASS = 107.87
  Ionic Valenz
   ZVAL   =  11.00
  Atomic Wigner-Seitz radii
  virtual crystal weights
   VCA    =   1.00
   NELECT =     517.0000    total number of electrons
   NUPDOWN=      -1.0000    fix difference up-down

 DOS related values:
   EMIN   =  10.00;   EMAX   =-10.00  energy-range for DOS
   EFERMI =   0.00
   ISMEAR =     0;   SIGMA  =   0.00  broadening in eV -4-tet -1-fermi 0-gaus

 Electronic relaxation 2 (details)
   IALGO  =     38    algorithm
   LDIAG  =      T    sub-space diagonalisation (order eigenvalues)
   LSUBROT=      F    optimize rotation matrix (better conditioning)
   TURBO    =      0    0=normal 1=particle mesh
   IRESTART =      0    0=no restart 2=restart with 2 vectors
   NREBOOT  =      0    no. of reboots
   NMIN     =      0    reboot dimension
   EREF     =   0.00    reference energy to select bands
   IMIX   =      4    mixing-type and parameters
     AMIX     =   0.40;   BMIX     =  1.00
     AMIX_MAG =   1.60;   BMIX_MAG =  1.00
     AMIN     =   0.10
     WC   =   100.;   INIMIX=   1;  MIXPRE=   1;  MAXMIX= -45

 Intra band minimization:
   WEIMIN = 0.0010     energy-eigenvalue tresh-hold
   EBREAK =  0.74E-07  absolut break condition
   DEPER  =   0.30     relativ break condition

   TIME   =   0.40     timestep for ELM

  volume/ion in A,a.u.               =     244.89      1652.59
  Fermi-wavevector in a.u.,A,eV,Ry     =   0.581947  1.099720  4.607775  0.338662
  Thomas-Fermi vector in A             =   1.626655

 Write flags
   LWAVE  =      F    write WAVECAR
   LCHARG =      F    write CHGCAR
[...]
  PAW double counting   =     50878.23489052   -48798.17193780
  entropy T*S    EENTRO =         0.00000000
  eigenvalues    EBANDS =     -3703.63184681
  atomic energy  EATOM  =     48748.33561406
  free energy    TOTEN  =      -101.57250278 eV

  energy without entropy =     -101.57250278  energy(sigma->0) =     -101.57250278

 average (electrostatic) potential at core
  the test charge radii are     1.1249
  (the norm of the test charge is              1.0000)
       1 -82.1358       2 -82.0646       3 -81.8868       4 -82.0626       5 -82.1209
       6 -82.0090       7 -81.8872       8 -81.9712       9 -82.3454      10 -82.1183
      11 -82.3047      12 -82.3463      13 -82.3839      14 -82.1226      15 -82.3230
      16 -82.1272      17 -81.9416      18 -82.1133      19 -82.1967      20 -81.9831
      21 -82.3116      22 -82.3382      23 -82.0709      24 -81.8078      25 -81.8768
      26 -82.1506      27 -82.0656      28 -82.0345      29 -82.3281      30 -81.9182
      31 -81.9665      32 -81.9470      33 -82.3331      34 -81.9228      35 -82.3103
      36 -82.1835      37 -82.2330      38 -82.0444      39 -82.1176      40 -82.1312
      41 -81.8194      42 -82.2752      43 -81.8976      44 -81.9125      45 -82.0928
      46 -81.9937      47 -81.9071

 E-fermi :  -3.0945     XC(G=0):  -1.3919     alpha+bet : -0.9373

[...]

 spin component 2

 k-point     1 :       0.0000    0.0000    0.0000
  band No.  band energies     occupation
      1      -9.6864      1.00000
      2      -9.1648      1.00000
      3      -9.1009      1.00000
      4      -9.0403      1.00000
      5      -9.0290      1.00000
      6      -8.9704      1.00000
      7      -8.9561      1.00000
      8      -8.9410      1.00000
      9      -8.9127      1.00000
     10      -8.9072      1.00000
     11      -8.8812      1.00000
     12      -8.8751      1.00000
     13      -8.8275      1.00000
     14      -8.8193      1.00000
     15      -8.7726      1.00000
     16      -8.7611      1.00000
     17      -8.7506      1.00000
     18      -8.7300      1.00000
     19      -8.7117      1.00000
     20      -8.6956      1.00000
     21      -8.6760      1.00000
     22      -8.6578      1.00000
     23      -8.6160      1.00000
     24      -8.6047      1.00000
     25      -8.5969      1.00000
     26      -8.5753      1.00000
     27      -8.5698      1.00000
     28      -8.5407      1.00000
     29      -8.5250      1.00000
     30      -8.5191      1.00000
     31      -8.4945      1.00000
     32      -8.4696      1.00000
     33      -8.4667      1.00000
     34      -8.4435      1.00000
     35      -8.4295      1.00000
     36      -8.4095      1.00000
     37      -8.3898      1.00000
     38      -8.3736      1.00000
     39      -8.3641      1.00000
     40      -8.3588      1.00000
     41      -8.3190      1.00000
     42      -8.3062      1.00000
     43      -8.2877      1.00000
     44      -8.2798      1.00000
     45      -8.2650      1.00000
     46      -8.2455      1.00000
     47      -8.2414      1.00000
     48      -8.2354      1.00000
     49      -8.1931      1.00000
     50      -8.1814      1.00000
     51      -8.1628      1.00000
     52      -8.1544      1.00000
     53      -8.1476      1.00000
     54      -8.1305      1.00000
     55      -8.1241      1.00000
     56      -8.1198      1.00000
     57      -8.1110      1.00000
     58      -8.1029      1.00000
     59      -8.0867      1.00000
     60      -8.0826      1.00000
[...]
    322       1.2707      0.00000
    323       1.3356      0.00000
    324       1.3437      0.00000
    325       1.3818      0.00000
    326       1.4197      0.00000
    327       1.4288      0.00000
    328       1.4710      0.00000
    329       1.4913      0.00000
    330       1.5112      0.00000
    331       1.5341      0.00000
    332       1.5587      0.00000
    333       1.5725      0.00000
    334       1.5991      0.00000
    335       1.6245      0.00000
    336       1.6606      0.00000

[...]

 soft charge-density along one line, spin component           2
         0         1         2         3         4         5         6         7         8         9
 total charge-density along one line

------------------------ aborting loop because EDIFF is reached ----------------------------------------

  FORCE on cell =-STRESS in cart. coord.  units (eV):
  Direction    XX          YY          ZZ          XY          YZ          ZX
  Alpha Z   163.24669   163.24669   163.24669
  Ewald   48747.85572 33955.75643 48668.49257 -3699.62134  5987.81796 -4045.41527
  Hartree 64070.59710 50028.79085 64131.01568 -3462.66193  5655.00991 -3839.68662
  E(xc)   -2725.23290 -2726.36203 -2725.79638    -0.34337     0.28279    -0.17266
  Local  ************-91704.64172************  7163.30672-11646.09646  7889.87395
  n-local  -487.65986  -490.08517  -487.26706    -1.09167     2.42434    -1.83098
  augment  4318.15036  4320.67476  4319.70054     0.26565    -0.05359    -0.69578
  Kinetic  6430.14025  6436.01389  6434.28837     0.24840     0.80650    -2.21566
  Fock        0.00000     0.00000     0.00000     0.00000     0.00000     0.00000
  Total     -16.55714   -16.60629   -16.38926     0.10246     0.19145    -0.14301
  in kB      -2.30478    -2.31163    -2.28142     0.01426     0.02665    -0.01991

 VOLUME and BASIS-vectors are now :
  energy-cutoff  :      249.84
  volume of cell :    11509.74
      direct lattice vectors                 reciprocal lattice vectors
    22.578157680  0.000000000  0.000000000     0.044290593  0.000000000  0.000000000
     0.000000000 22.578157680  0.000000000     0.000000000  0.044290593  0.000000000
     0.000000000  0.000000000 22.578157680     0.000000000  0.000000000  0.044290593

  length of vectors
    22.578157680 22.578157680 22.578157680     0.044290593  0.044290593  0.044290593

 FORCES acting on ions
    electron-ion (+dipol)            ewald-force                    non-local-force                 convergence-correction
   0.203E+03 -.606E+03 0.164E+04   -.203E+03 0.605E+03 -.163E+04   -.738E-01 0.122E+01 -.350E+01   -.767E-02 0.802E-02 0.806E-02
   -.923E+03 -.709E+03 0.139E+04   0.921E+03 0.706E+03 -.139E+04   0.203E+01 0.310E+01 -.374E+01   0.106E-01 -.393E-02 0.370E-02
   -.382E+03 0.369E+03 0.168E+04   0.382E+03 -.369E+03 -.168E+04   0.153E+00 0.841E-01 -.451E+01   -.862E-02 -.981E-02 0.952E-03
   -.931E+03 -.145E+04 0.528E+03   0.928E+03 0.145E+04 -.526E+03   0.235E+01 0.355E+01 -.165E+01   0.129E-01 0.178E-01 -.273E-02
   0.604E+03 0.714E+03 0.148E+04   -.602E+03 -.711E+03 -.148E+04   -.108E+01 -.246E+01 -.274E+01   -.646E-02 0.412E-02 0.126E-01
   0.116E+04 -.212E+03 0.136E+04   -.116E+04 0.211E+03 -.136E+04   -.196E+01 0.116E+01 -.368E+01   -.957E-02 -.253E-02 0.700E-02
   -.135E+04 0.283E+03 0.107E+04   0.135E+04 -.283E+03 -.107E+04   0.197E+01 -.370E+00 -.175E+01   -.319E-02 -.101E-01 0.102E-01
   0.744E+03 -.133E+04 0.982E+03   -.742E+03 0.133E+04 -.981E+03   -.211E+01 0.305E+01 -.137E+01   0.167E-03 -.179E-03 -.385E-02
   -.245E+03 -.119E+04 0.984E+03   0.245E+03 0.119E+04 -.984E+03   -.596E-01 0.496E+00 0.410E-01   0.106E-01 -.952E-02 -.715E-02
   0.113E+03 -.177E+04 0.296E+03   -.112E+03 0.177E+04 -.295E+03   -.799E+00 0.429E+01 -.755E+00   -.578E-02 0.332E-02 -.397E-02
   -.112E+04 -.539E+03 0.574E+03   0.112E+04 0.538E+03 -.574E+03   0.668E-01 0.355E+00 0.401E+00   0.105E-01 0.349E-02 0.739E-02
   0.564E+03 -.237E+03 0.613E+03   -.563E+03 0.237E+03 -.612E+03   -.785E+00 0.204E+00 -.172E+01   -.170E-01 -.151E-01 0.148E-01
   -.249E+03 0.129E+03 0.822E+03   0.249E+03 -.129E+03 -.821E+03   0.603E+00 0.132E+00 -.983E+00   0.957E-02 0.444E-02 0.165E-01
   -.701E+03 -.149E+04 -.546E+03   0.700E+03 0.148E+04 0.547E+03   0.670E+00 0.252E+01 -.308E+00   0.462E-02 -.597E-02 -.280E-01
   0.455E+03 0.108E+04 0.678E+03   -.454E+03 -.108E+04 -.678E+03   -.863E+00 -.729E+00 0.238E+00   -.180E-02 0.296E-01 0.100E-01
   -.152E+04 -.861E+03 -.215E+02   0.152E+04 0.860E+03 0.220E+02   0.343E+01 0.115E+01 -.466E+00   0.341E-02 0.104E-01 0.935E-02
   -.397E+03 0.121E+04 0.119E+04   0.397E+03 -.120E+04 -.119E+04   -.346E+00 -.195E+01 -.186E+01   -.612E-02 0.190E-02 0.412E-02
   0.138E+04 0.766E+03 0.797E+03   -.138E+04 -.763E+03 -.797E+03   -.299E+01 -.288E+01 -.905E+00   0.529E-02 -.883E-03 0.569E-02
   0.891E+03 -.120E+04 0.136E+03   -.891E+03 0.120E+04 -.136E+03   -.757E-01 0.909E+00 -.299E+00   -.366E-02 0.113E-01 -.731E-02
   0.161E+04 -.481E+03 0.587E+03   -.160E+04 0.480E+03 -.586E+03   -.375E+01 0.100E+01 -.171E+01   -.963E-02 -.759E-02 0.541E-02
   -.144E+03 -.688E+03 -.504E+02   0.143E+03 0.687E+03 0.510E+02   0.778E+00 0.135E+01 -.642E+00   -.190E-01 -.142E-01 -.407E-02
   -.624E+03 0.840E+03 0.341E+02   0.622E+03 -.840E+03 -.336E+02   0.137E+01 -.719E-01 -.422E+00   -.701E-02 0.148E-01 0.321E-02
   -.167E+04 0.227E+03 0.237E+03   0.167E+04 -.228E+03 -.237E+03   0.314E+01 0.101E+01 0.133E+00   -.557E-02 0.601E-03 -.100E-01
   -.126E+04 0.119E+04 0.385E+03   0.126E+04 -.119E+04 -.384E+03   0.302E+01 -.372E+01 -.464E+00   0.139E-01 -.185E-02 0.437E-02
   0.587E+03 0.157E+04 0.296E+03   -.584E+03 -.156E+04 -.294E+03   -.243E+01 -.531E+01 -.240E+01   0.167E-01 0.811E-02 -.142E-01
   -.160E+04 0.121E+03 -.701E+03   0.160E+04 -.120E+03 0.700E+03   0.438E+01 -.110E+01 0.108E+01   -.575E-02 0.532E-02 -.453E-02
   0.108E+03 -.155E+04 -.732E+03   -.109E+03 0.155E+04 0.731E+03   0.201E+00 0.193E+01 0.159E+01   -.177E-02 0.136E-01 -.110E-01
   -.109E+04 -.806E+03 -.115E+04   0.109E+04 0.804E+03 0.114E+04   0.198E+01 0.191E+01 0.320E+01   -.476E-02 -.658E-02 -.531E-02
   -.764E+03 -.279E+02 -.433E+03   0.763E+03 0.275E+02 0.432E+03   0.122E+01 0.353E+00 0.123E+01   -.520E-02 0.450E-03 -.205E-01
   0.915E+03 -.134E+04 -.629E+03   -.913E+03 0.134E+04 0.628E+03   -.193E+01 0.382E+01 0.511E+00   0.144E-03 0.101E-01 -.189E-01
   0.123E+04 0.124E+04 -.118E+03   -.122E+04 -.124E+04 0.116E+03   -.245E+01 -.183E+01 0.110E+01   0.596E-02 0.142E-02 0.483E-02
   0.163E+04 -.505E+03 -.132E+03   -.162E+04 0.505E+03 0.132E+03   -.352E+01 0.708E+00 0.676E+00   -.792E-02 0.169E-02 -.620E-02
   0.127E+04 0.361E+03 -.175E+01   -.127E+04 -.362E+03 0.203E+01   0.292E+00 0.561E+00 -.271E+00   0.981E-02 -.235E-03 -.155E-01
   -.415E+03 0.167E+04 0.220E+03   0.414E+03 -.167E+04 -.221E+03   0.144E+01 -.389E+01 0.939E+00   0.193E-01 -.145E-01 0.235E-01
   0.153E+03 0.379E+03 -.199E+03   -.154E+03 -.379E+03 0.199E+03   0.253E+00 -.345E+00 -.183E+00   0.148E-02 -.291E-02 0.215E-01
   -.377E+03 -.642E+03 -.125E+04   0.376E+03 0.642E+03 0.125E+04   0.417E+00 -.159E+00 0.173E+00   -.176E-01 -.126E-01 -.156E-01
   0.753E+02 0.154E+04 -.647E+03   -.756E+02 -.154E+04 0.646E+03   0.204E+00 -.247E+01 0.143E+01   0.177E-01 0.466E-02 0.233E-01
   -.116E+04 0.116E+04 -.699E+03   0.116E+04 -.115E+04 0.697E+03   0.169E+01 -.353E+01 0.254E+01   -.145E-01 -.104E-01 -.146E-01
   0.506E+03 -.229E+03 -.706E+03   -.505E+03 0.228E+03 0.705E+03   -.153E+01 0.418E+00 0.148E+01   0.770E-02 -.834E-02 -.390E-02
   -.856E+03 0.353E+03 -.150E+04   0.853E+03 -.352E+03 0.150E+04   0.228E+01 -.150E+01 0.348E+01   0.964E-02 -.133E-02 -.460E-02
   0.123E+04 -.384E+03 -.109E+04   -.123E+04 0.383E+03 0.109E+04   -.316E+01 0.589E+00 0.203E+01   -.590E-02 0.260E-02 -.777E-02
   -.380E+03 0.109E+04 -.110E+04   0.379E+03 -.109E+04 0.110E+04   0.847E+00 -.100E+01 0.988E+00   -.739E-02 -.387E-01 -.121E-01
   0.192E+03 -.761E+03 -.154E+04   -.192E+03 0.759E+03 0.153E+04   0.413E+00 0.225E+01 0.388E+01   -.123E-01 0.129E-01 -.834E-02
   0.146E+04 0.670E+03 -.640E+03   -.145E+04 -.668E+03 0.639E+03   -.388E+01 -.202E+01 0.679E+00   0.752E-02 -.550E-02 0.130E-01
   0.589E+03 0.113E+04 -.991E+03   -.588E+03 -.112E+04 0.990E+03   -.283E+00 -.116E+01 0.986E+00   0.904E-02 -.282E-01 0.175E-01
   -.141E+03 0.441E+03 -.161E+04   0.141E+03 -.440E+03 0.160E+04   0.167E+00 -.530E+00 0.212E+01   -.126E-01 0.451E-02 -.107E-01
   0.647E+03 0.501E+03 -.150E+04   -.646E+03 -.500E+03 0.149E+04   -.877E+00 -.168E+01 0.334E+01   0.453E-02 0.120E-01 0.138E-01
   -.382E+00 0.534E+00 0.200E+01   0.000E+00 0.119E-11 -.341E-11   0.422E+00 -.612E+00 -.204E+01   -.157E-01 -.239E-01 -.821E-04

 POSITION                                       TOTAL-FORCE (eV/Angst)
     10.96412     12.60383      6.81382         0.009003     -0.000947     -0.002972
     13.87678     12.65455      7.19513        -0.005106      0.005704     -0.000079
     12.87875     10.26798      6.12852         0.006210      0.005580     -0.004760
     14.08725     15.26794     10.29364        -0.007588     -0.010046      0.005477
     10.22289      9.95096      7.20373         0.003728     -0.006120     -0.007572
      8.24205     12.06909      7.37002         0.003357      0.002602     -0.003364
     15.03517     10.25298      8.20523         0.000816      0.009438     -0.003116
      9.32239     14.52417      8.60041        -0.004021      0.005452      0.002708
     12.05542     13.99796      8.91657        -0.008695      0.001557     -0.001053
     11.26838     15.82706     10.88101        -0.001507     -0.000909      0.005460
     14.29045     12.49832      9.94114        -0.006999     -0.010503     -0.000948
      9.92938     12.03712      9.66699         0.001165      0.005323     -0.006677
     12.29732     10.93485      8.82911        -0.002418     -0.009038     -0.003674
     13.49696     15.06903     12.97938         0.002239      0.006513      0.013375
     10.70501      8.67559      9.66967        -0.000710     -0.009933     -0.009436
     15.75097     13.59945     11.99608        -0.002814     -0.007227     -0.006477
     13.04961      8.26101      8.03556         0.006533      0.003028     -0.010580
      8.12298      9.90890      9.15161         0.005084      0.008205      0.000753
      9.01718     14.14585     11.52278         0.001454     -0.004566      0.004370
      7.16809     12.76609      9.87959         0.008164      0.004004     -0.002107
     11.74056     13.21486     11.71018         0.011926      0.000499      0.004022
     13.32665      9.26222     10.89619        -0.003282     -0.002922      0.003412
     16.01697     10.50052     10.84452        -0.001134      0.001300      0.003900
     15.39617      7.89386      9.79806        -0.004362     -0.000304     -0.004603
      9.95059      6.08993     10.33840        -0.019406     -0.015784      0.008301
     16.43723     11.31659     13.59652         0.005421     -0.002880      0.003773
     10.77975     15.18658     13.64583        -0.004718     -0.005983      0.009460
     15.11163     13.56038     14.70840         0.008744      0.002194      0.002662
     13.84129     11.54845     12.61552         0.004095      0.001079      0.003029
      8.14450     14.97061     14.19036         0.003411     -0.005247      0.013080
      8.53072      8.24035     11.55481        -0.007232      0.006034     -0.003592
      6.70466     13.03887     12.73315         0.004155      0.003017      0.002306
      8.25590     10.96122     11.72742        -0.000331      0.001435     -0.008929
     12.77396      6.56830     10.17939        -0.012332     -0.000625     -0.013183
     11.06631     10.58606     11.83091         0.004815      0.004357     -0.013381
     12.32637     13.10046     14.66877         0.004003      0.002198      0.012387
     11.19498      7.63876     12.26125        -0.000999      0.015926      0.005568
     15.18332      8.84052     12.91118         0.006807      0.004908      0.011664
      9.64505     12.33364     13.73207         0.004211      0.004611      0.003073
     14.20112     10.99094     15.37696         0.003731      0.001928      0.006042
      7.05306     12.92454     15.59729         0.001925     -0.005570      0.006566
     12.54504      9.33030     13.91179        -0.011617      0.002012     -0.011561
      9.84220     13.56562     16.13311         0.007044     -0.009364      0.007783
      7.03919     10.49788     14.12084        -0.011186      0.001734     -0.002109
      9.62220      9.37657     14.01597         0.001257      0.010907     -0.013883
     11.36512     10.86730     15.89460        -0.002594     -0.000104      0.006522
      8.70291     10.87317     16.33024        -0.000247     -0.013472     -0.011636
    total drift:                                0.023569     -0.101640     -0.041612

  FREE ENERGIE OF THE ION-ELECTRON SYSTEM (eV)
  free  energy   TOTEN  =      -101.57250278 eV

  energy  without entropy=     -101.57250278  energy(sigma->0) =     -101.57250278

 d Force =-0.7434608E-04[-0.279E-03, 0.131E-03]  d Energy =-0.1230666E-03 0.487E-04
 d Force =-0.1307441E+01[-0.131E+01,-0.131E+01]  d Ewald  =-0.1307442E+01 0.102E-05

 reached required accuracy - stopping structural energy minimisation