 vasp.5.3.5 31Mar14 (build Feb 01 2018 12:10:03) gamma-only

 executed on             LinuxIFC date 2019.03.25  10:36:44

 INCAR:
 POTCAR:    PAW_PBE Ag 02Apr2005
 POTCAR:    PAW_PBE Ag 02Apr2005
   VRHFIN =Ag : s1 d10

   TITEL  = PAW_PBE Ag 02Apr2005
   POMASS =  107.868; ZVAL   =   11.000    mass and valenz
   ENMAX  =  249.844; ENMIN  =  187.383 eV

  PAW_PBE Ag 02Apr2005                  :

 POSCAR: Al53, -169.22546794 <s> Ag </s>
  positions in direct lattice
 exchange correlation table for  LEXCH =        8
   RHO(1)=    0.500       N(1)  =     2000
   RHO(2)=  100.500       N(2)  =     4000

 ion  position               nearest neighbor table
   1  0.661  0.393  0.410-  15 2.80   2 2.81   4 2.82   9 2.83   5 2.92
   2  0.620  0.487  0.350-   1 2.81  21 2.81   3 2.86   5 2.87  15 2.89  13 2.95   7 2.99   6 3.06

   3  0.526  0.501  0.275-   6 2.77   7 2.82  20 2.83  19 2.84   2 2.86  21 2.98
   4  0.686  0.418  0.524-   5 2.79   1 2.82  12 2.82   8 2.85  18 2.85  17 2.89  22 2.93  15 3.05

[...]

   6  0.502  0.437  0.370-   9 2.76   3 2.77  21 2.85  19 2.87  24 2.90  15 2.93  14 2.94  28 2.99
                             2 3.06
   7  0.601  0.593  0.285-  13 2.73  20 2.80   3 2.82   2 2.99  26 3.03  21 3.15
   8  0.585  0.355  0.543-   9 2.76   4 2.85  36 2.85  12 2.87  29 2.88  16 2.89  22 2.93  15 3.14
                            11 3.19  24 3.50
   9  0.551  0.350  0.431-   6 2.76   8 2.76  15 2.81   1 2.83  14 2.83  16 2.94  24 3.05
  10  0.706  0.623  0.491-  17 2.74  25 2.82  13 2.82  23 2.85  30 2.96   5 2.96
  11  0.501  0.296  0.631-  16 2.76  29 2.77  37 2.81  36 2.99   8 3.19
  12  0.685  0.333  0.608-  18 2.77   4 2.82  36 2.84   8 2.87
  13  0.642  0.602  0.393-   7 2.73   5 2.81  10 2.82  26 2.83  25 2.85  21 2.91  23 2.94   2 2.95

  14  0.434  0.340  0.408-  28 2.77   9 2.83  16 2.84  31 2.88   6 2.94  24 3.07
  15  0.580  0.461  0.463-  23 2.70  24 2.71  22 2.76   1 2.80   9 2.81   5 2.84   2 2.89   6 2.93
                            21 3.02   4 3.05   8 3.14
  16  0.470  0.318  0.520-  11 2.76  24 2.84  14 2.84  31 2.87   8 2.89  29 2.89   9 2.94  37 3.02

[...]

  20  0.484  0.613  0.277-   7 2.80  32 2.82   3 2.83  19 2.89  26 2.96  21 3.21
  21  0.529  0.553  0.390-  33 2.77  26 2.79   2 2.81   6 2.85  19 2.88  32 2.91  13 2.91   3 2.98
                            35 3.00  15 3.02   7 3.15  20 3.21  23 3.21
  22  0.589  0.474  0.579-  15 2.76  23 2.81  29 2.83  38 2.83  41 2.86  27 2.89  36 2.91   8 2.93
                             4 2.93  18 3.05  17 3.06  40 3.47
  23  0.600  0.566  0.505-  33 2.67  15 2.70  38 2.77  22 2.81  10 2.85   5 2.88  25 2.91  17 2.91
                            13 2.94  30 2.98  21 3.21
  24  0.471  0.434  0.489-  35 2.69  15 2.71  29 2.73  16 2.84  28 2.88   6 2.90  40 2.91  31 2.94
                             9 3.05  14 3.07   8 3.50
  25  0.605  0.685  0.472-  45 2.71  26 2.79  10 2.82  13 2.85  33 2.89  23 2.91  34 3.17  30 3.19

[...]

  31  0.364  0.373  0.502-  47 2.75  28 2.83  16 2.87  14 2.88  43 2.89  37 2.91  24 2.94
  32  0.433  0.630  0.384-  44 2.68  19 2.78  26 2.78  20 2.82  33 2.87  21 2.91  35 2.94  39 3.01
                            34 3.05
  33  0.503  0.619  0.483-  35 2.64  23 2.67  45 2.76  21 2.77  34 2.78  32 2.87  44 2.88  25 2.89
                            26 3.03  46 3.07  38 3.11  40 3.61
  34  0.480  0.730  0.451-  33 2.78  26 2.80  44 2.86  45 2.87  32 3.05  25 3.17
  35  0.428  0.537  0.466-  33 2.64  24 2.69  39 2.71  40 2.78  28 2.81  50 2.85  32 2.94  21 3.00
                            44 3.06  19 3.12  43 3.57
  36  0.589  0.382  0.661-  41 2.78  29 2.80  12 2.84   8 2.85  22 2.91  11 2.99  18 3.02
  37  0.393  0.345  0.619-  47 2.76  29 2.79  11 2.81  31 2.91  49 2.97  16 3.02
  38  0.539  0.580  0.604-  40 2.72  23 2.77  46 2.82  48 2.82  30 2.83  22 2.83  51 2.94  27 2.98
                            41 3.03  42 3.04  45 3.11  33 3.11
  39  0.330  0.561  0.411-  35 2.71  43 2.87  50 2.93  28 2.99  19 2.99  32 3.01  44 3.18
  40  0.448  0.514  0.580-  38 2.72  29 2.73  35 2.78  49 2.86  46 2.87  24 2.91  51 2.98  47 2.98
                            52 3.00  50 3.16  41 3.27  22 3.47  33 3.61
  41  0.531  0.481  0.685-  36 2.78  49 2.79  29 2.82  51 2.82  22 2.86  42 2.89  27 3.01  38 3.03
                            40 3.27
  42  0.559  0.592  0.731-  48 2.70  27 2.72  51 2.76  41 2.89  38 3.04
  43  0.293  0.472  0.485-  47 2.80  50 2.82  28 2.83  39 2.87  53 2.88  31 2.89  35 3.57
  44  0.387  0.659  0.483-  32 2.68  50 2.68  46 2.84  34 2.86  33 2.88  35 3.06  39 3.18
  45  0.532  0.704  0.558-  48 2.65  25 2.71  33 2.76  34 2.87  46 2.96  30 3.06  38 3.11
  46  0.433  0.634  0.592-  38 2.82  44 2.84  51 2.84  40 2.87  45 2.96  48 2.99  50 3.05  33 3.07
                            52 3.18
  47  0.341  0.446  0.590-  31 2.75  49 2.76  37 2.76  52 2.78  43 2.80  53 2.83  40 2.98  50 3.25

  48  0.523  0.680  0.668-  45 2.65  42 2.70  38 2.82  46 2.99  51 3.15  30 3.35
  49  0.417  0.452  0.679-  29 2.75  47 2.76  41 2.79  40 2.86  52 2.90  51 2.92  37 2.97
  50  0.335  0.572  0.535-  44 2.68  52 2.77  53 2.78  43 2.82  35 2.85  39 2.93  46 3.05  40 3.16
                            47 3.25
  51  0.451  0.570  0.692-  52 2.73  42 2.76  41 2.82  46 2.84  49 2.92  38 2.94  40 2.98  48 3.15

  52  0.346  0.548  0.649-  51 2.73  50 2.77  47 2.78  49 2.90  53 2.90  40 3.00  46 3.18
  53  0.245  0.517  0.587-  50 2.78  47 2.83  43 2.88  52 2.90

  LATTYP: Found a simple cubic cell.
 ALAT       =    23.5983577072

  Lattice vectors:

 A1 = (  23.5983577072,   0.0000000000,   0.0000000000)
 A2 = (   0.0000000000,  23.5983577072,   0.0000000000)
 A3 = (   0.0000000000,   0.0000000000,  23.5983577072)

Analysis of symmetry for initial positions (statically):
 Subroutine PRICEL returns:
 Original cell was already a primitive cell.

 Routine SETGRP: Setting up the symmetry group for a
 simple cubic supercell.

 Subroutine GETGRP returns: Found  1 space group operations
 (whereof  1 operations were pure point group operations)
 out of a pool of 48 trial point group operations.

The static configuration has the point symmetry C_1 .

Analysis of symmetry for dynamics (positions and initial velocities):
 Subroutine PRICEL returns:
 Original cell was already a primitive cell.

 Routine SETGRP: Setting up the symmetry group for a
 simple cubic supercell.

 Subroutine GETGRP returns: Found  1 space group operations
 (whereof  1 operations were pure point group operations)
 out of a pool of 48 trial point group operations.

The dynamic configuration has the point symmetry C_1 .

Analysis of magnetic symmetry:
 Subroutine PRICEL returns:
 Original cell was already a primitive cell.

 Subroutine MAGSYM returns: Found  1 space group operations
 (whereof  1 operations were pure point group operations)
 out of a pool of  1 trial space group operations
 (whereof  1 operations were pure point group operations)
 and found also     1 'primitive' translations

The magnetic configuration has the point symmetry C_1 .

 KPOINTS: Gamma-point only
  k-points in reciprocal lattice
Space group operators:
 irot       det(A)        alpha          n_x          n_y          n_z        tau_x        tau_y        tau_z
    1     1.000000     0.000000     1.000000     0.000000     0.000000     0.000000     0.000000     0.000000

 I would recommend the setting:
   dimension x,y,z NGX =    91 NGY =   91 NGZ =   91
 SYSTEM =  unknown system
 POSCAR =  Al53, -169.22546794 <s> Ag </s>

 Startparameter for this run:
   NWRITE =      2    write-flag & timer
   PREC   = normal    normal or accurate (medium, high low for compatibility)
   ISTART =      0    job   : 0-new  1-cont  2-samecut
   ICHARG =      2    charge: 1-file 2-atom 10-const
   ISPIN  =      2    spin polarized calculation?
   LNONCOLLINEAR =      F non collinear calculations
   LSORBIT =      F    spin-orbit coupling
   INIWAV =      1    electr: 0-lowe 1-rand  2-diag
   LASPH  =      F    aspherical Exc in radial PAW
   METAGGA=      F    non-selfconsistent MetaGGA calc.

 Electronic Relaxation 1
   ENCUT  =  249.8 eV  18.36 Ry    4.29 a.u.  30.41 30.41 30.41*2*pi/ulx,y,z
   ENINI  =  249.8     initial cutoff
   ENAUG  =  412.5 eV  augmentation charge cutoff
   NELM   =     60;   NELMIN=  2; NELMDL= -5     # of ELM steps
   EDIFF  = 0.1E-03   stopping-criterion for ELM
   LREAL  =      F    real-space projection
   NLSPLINE    = F    spline interpolate recip. space projectors
   LCOMPAT=      F    compatible to vasp.4.4
   GGA_COMPAT  = T    GGA compatible to vasp.4.4-vasp.4.6
   LMAXPAW     = -100 max onsite density
   LMAXMIX     =    2 max onsite mixed and CHGCAR
   VOSKOWN=      0    Vosko Wilk Nusair interpolation
   ROPT   =    0.00000
 Ionic relaxation
   EDIFFG = 0.1E-02   stopping-criterion for IOM
   NSW    =   1000    number of steps for IOM
   NBLOCK =      1;   KBLOCK =   1000    inner block; outer block
   IBRION =      2    ionic relax: 0-MD 1-quasi-New 2-CG
   NFREE  =      1    steps in history (QN), initial steepest desc. (CG)
   ISIF   =      2    stress and relaxation
   IWAVPR =     11    prediction:  0-non 1-charg 2-wave 3-comb
   ISYM   =      2    0-nonsym 1-usesym 2-fastsym
   LCORR  =      T    Harris-Foulkes like correction to forces

   POTIM  = 0.1000    time-step for ionic-motion
   TEIN   =    0.0    initial temperature
   TEBEG  =    0.0;   TEEND  =   0.0 temperature during run
   SMASS  =  -3.00    Nose mass-parameter (am)
   estimated Nose-frequenzy (Omega)   =  0.10E-29 period in steps =****** mass=  -0.127E-25a.u.
   SCALEE = 1.0000    scale energy and forces
   NPACO  =    256;   APACO  = 16.0  distance and # of slots for P.C.
   PSTRESS=    0.0 pullay stress

  Mass of Ions in am
   POMASS = 107.87
  Ionic Valenz
   ZVAL   =  11.00
  Atomic Wigner-Seitz radii
  virtual crystal weights
   VCA    =   1.00
   NELECT =     583.0000    total number of electrons
   NUPDOWN=      -1.0000    fix difference up-down

 DOS related values:
   EMIN   =  10.00;   EMAX   =-10.00  energy-range for DOS
   EFERMI =   0.00
   ISMEAR =     0;   SIGMA  =   0.00  broadening in eV -4-tet -1-fermi 0-gaus

 Electronic relaxation 2 (details)
   IALGO  =     38    algorithm
   LDIAG  =      T    sub-space diagonalisation (order eigenvalues)
   LSUBROT=      F    optimize rotation matrix (better conditioning)
   TURBO    =      0    0=normal 1=particle mesh
   IRESTART =      0    0=no restart 2=restart with 2 vectors
   NREBOOT  =      0    no. of reboots
   NMIN     =      0    reboot dimension
   EREF     =   0.00    reference energy to select bands
   IMIX   =      4    mixing-type and parameters
     AMIX     =   0.40;   BMIX     =  1.00
     AMIX_MAG =   1.60;   BMIX_MAG =  1.00
     AMIN     =   0.10
     WC   =   100.;   INIMIX=   1;  MIXPRE=   1;  MAXMIX= -45

 Intra band minimization:
   WEIMIN = 0.0010     energy-eigenvalue tresh-hold
   EBREAK =  0.66E-07  absolut break condition
   DEPER  =   0.30     relativ break condition

   TIME   =   0.40     timestep for ELM

  volume/ion in A,a.u.               =     247.95      1673.27
  Fermi-wavevector in a.u.,A,eV,Ry     =   0.579539  1.095170  4.569725  0.335865
[...]

 E-fermi :  -3.3009     XC(G=0):  -1.3399     alpha+bet : -0.9257

[...]

 spin component 2

 k-point     1 :       0.0000    0.0000    0.0000
  band No.  band energies     occupation
      1      -9.6843      1.00000
      2      -9.1390      1.00000
      3      -9.0791      1.00000
      4      -9.0399      1.00000
      5      -8.9957      1.00000
      6      -8.9733      1.00000
      7      -8.9542      1.00000
      8      -8.9313      1.00000
      9      -8.9184      1.00000
     10      -8.8937      1.00000
     11      -8.8833      1.00000
     12      -8.8669      1.00000
     13      -8.8577      1.00000
     14      -8.8193      1.00000
     15      -8.8019      1.00000
     16      -8.7794      1.00000
     17      -8.7712      1.00000
     18      -8.7589      1.00000
     19      -8.7253      1.00000
     20      -8.7232      1.00000
     21      -8.6881      1.00000
     22      -8.6779      1.00000
     23      -8.6770      1.00000
     24      -8.6468      1.00000
     25      -8.6230      1.00000
     26      -8.6132      1.00000
     27      -8.5875      1.00000
     28      -8.5799      1.00000
     29      -8.5626      1.00000
     30      -8.5490      1.00000
     31      -8.5205      1.00000
     32      -8.5163      1.00000
     33      -8.4972      1.00000
     34      -8.4929      1.00000
     35      -8.4794      1.00000
     36      -8.4689      1.00000
     37      -8.4573      1.00000
     38      -8.4534      1.00000
     39      -8.4352      1.00000
     40      -8.4247      1.00000
     41      -8.4010      1.00000
     42      -8.3853      1.00000
     43      -8.3753      1.00000
     44      -8.3587      1.00000
     45      -8.3563      1.00000
     46      -8.3419      1.00000
     47      -8.3340      1.00000
     48      -8.3132      1.00000
     49      -8.3064      1.00000
     50      -8.2944      1.00000
     51      -8.2686      1.00000
     52      -8.2521      1.00000
     53      -8.2447      1.00000
     54      -8.2306      1.00000
     55      -8.2218      1.00000
     56      -8.2041      1.00000
     57      -8.1919      1.00000
     58      -8.1821      1.00000
     59      -8.1687      1.00000
     60      -8.1657      1.00000
[...]
    362       1.3652      0.00000
    363       1.3780      0.00000
    364       1.3925      0.00000
    365       1.4068      0.00000
    366       1.4346      0.00000
    367       1.4539      0.00000
    368       1.4938      0.00000
    369       1.4997      0.00000
    370       1.5059      0.00000
    371       1.5227      0.00000
    372       1.5297      0.00000
    373       1.5348      0.00000
    374       1.5522      0.00000
    375       1.5665      0.00000
    376       1.6391      0.00000

[...]

 soft charge-density along one line, spin component           2
         0         1         2         3         4         5         6         7         8         9
 total charge-density along one line

------------------------ aborting loop because EDIFF is reached ----------------------------------------

  FORCE on cell =-STRESS in cart. coord.  units (eV):
  Direction    XX          YY          ZZ          XY          YZ          ZX
  Alpha Z   181.81118   181.81118   181.81118
  Ewald   52528.92976 53263.94594 58841.92219  2636.39616 -4767.65875  -977.19358
  Hartree 70305.47866 70899.81285 76274.72590  2535.57051 -4514.97552  -986.36681
  E(xc)   -3074.40088 -3073.75206 -3073.66970    -0.02999    -0.23674     0.20398
  Local  ************************************ -5176.27361  9282.88155  1969.91893
  n-local  -546.34536  -546.50700  -545.29932     1.30122    -0.92118    -1.28408
  augment  4872.84675  4870.26863  4869.68101     0.72276     0.22038    -1.48387
  Kinetic  7258.07697  7252.25774  7251.30489     2.37957     0.36851    -3.86465
  Fock        0.00000     0.00000     0.00000     0.00000     0.00000     0.00000
  Total     -19.68808   -19.46258   -19.31259     0.06663    -0.32175    -0.07009
  in kB      -2.40032    -2.37282    -2.35454     0.00812    -0.03923    -0.00855

 VOLUME and BASIS-vectors are now :
  energy-cutoff  :      249.84
  volume of cell :    13141.51
      direct lattice vectors                 reciprocal lattice vectors
    23.598357707  0.000000000  0.000000000     0.042375830  0.000000000  0.000000000
     0.000000000 23.598357707  0.000000000     0.000000000  0.042375830  0.000000000
     0.000000000  0.000000000 23.598357707     0.000000000  0.000000000  0.042375830

  length of vectors
    23.598357707 23.598357707 23.598357707     0.042375830  0.042375830  0.042375830

 FORCES acting on ions
    electron-ion (+dipol)            ewald-force                    non-local-force                 convergence-correction
   -.120E+04 0.112E+04 0.956E+03   0.120E+04 -.112E+04 -.954E+03   0.286E+01 -.374E+01 -.199E+01   0.399E-01 0.186E-01 -.278E-01
   -.103E+04 0.431E+03 0.138E+04   0.103E+04 -.429E+03 -.138E+04   0.604E+00 -.161E+01 -.227E+01   -.418E-01 -.182E-01 0.496E-01
   -.513E+02 0.439E+03 0.177E+04   0.511E+02 -.438E+03 -.176E+04   0.200E+00 -.184E+01 -.404E+01   -.212E-01 -.314E-01 0.458E-02
   -.149E+04 0.872E+03 0.831E+02   0.149E+04 -.872E+03 -.826E+02   0.153E+01 -.496E+00 -.519E+00   0.167E-01 0.413E-01 0.173E-02
   -.170E+04 0.138E+03 0.616E+03   0.169E+04 -.138E+03 -.616E+03   0.203E+01 0.260E-01 -.507E-01   0.320E-02 -.456E-02 0.697E-02
   0.113E+03 0.877E+03 0.137E+04   -.115E+03 -.876E+03 -.137E+04   0.143E+01 -.576E+00 -.897E+00   0.187E-01 0.496E-02 0.215E-01
   -.789E+03 -.549E+03 0.158E+04   0.787E+03 0.548E+03 -.157E+04   0.195E+01 0.132E+01 -.446E+01   0.513E-01 -.316E-02 -.354E-01
   -.565E+03 0.139E+04 -.789E+02   0.564E+03 -.139E+04 0.792E+02   0.624E+00 -.575E+00 -.374E+00   -.224E-01 0.225E-01 0.426E-01
   -.462E+03 0.156E+04 0.877E+03   0.461E+03 -.156E+04 -.876E+03   0.118E+01 -.362E+01 -.457E+00   -.323E-01 -.137E-01 -.345E-01
   -.167E+04 -.911E+03 0.143E+03   0.167E+04 0.909E+03 -.143E+03   0.486E+01 0.210E+01 -.440E+00   0.266E-01 -.247E-01 0.284E-02
   -.353E+02 0.159E+04 -.927E+03   0.347E+02 -.158E+04 0.924E+03   0.596E+00 -.455E+01 0.269E+01   0.166E-01 0.364E-01 -.829E-02
   -.112E+04 0.136E+04 -.467E+03   0.112E+04 -.135E+04 0.466E+03   0.293E+01 -.520E+01 0.119E+01   -.106E-01 -.148E-01 -.148E-02
   -.128E+04 -.785E+03 0.941E+03   0.128E+04 0.784E+03 -.940E+03   0.160E+01 0.174E+00 -.852E+00   -.899E-02 0.129E-01 0.198E-01
   0.573E+03 0.150E+04 0.104E+04   -.571E+03 -.150E+04 -.104E+04   -.162E+01 -.359E+01 -.278E+01   -.259E-01 -.992E-02 -.250E-02
   -.529E+03 0.491E+03 0.492E+03   0.529E+03 -.492E+03 -.492E+03   0.298E+00 0.101E+00 -.140E+00   0.111E-01 0.474E-01 0.179E-01
   0.307E+03 0.179E+04 0.697E+02   -.307E+03 -.179E+04 -.693E+02   -.329E+00 -.334E+01 -.348E+00   0.497E-02 0.447E-01 0.129E-01
   -.173E+04 -.153E+03 -.435E+03   0.173E+04 0.153E+03 0.435E+03   0.215E+01 0.441E+00 0.184E+00   -.393E-01 -.198E-01 0.185E-01
   -.146E+04 0.478E+03 -.105E+04   0.146E+04 -.477E+03 0.105E+04   0.305E+01 -.165E+01 0.209E+01   0.491E-02 0.523E-01 0.388E-02
   0.969E+03 0.276E+02 0.154E+04   -.968E+03 -.276E+02 -.154E+04   -.151E+01 -.832E-01 -.188E+01   0.633E-01 0.360E-01 -.631E-02
   0.421E+03 -.810E+03 0.161E+04   -.420E+03 0.809E+03 -.160E+04   -.105E+01 0.141E+01 -.477E+01   -.613E-01 -.194E-02 0.335E-01
   -.165E+03 -.291E+03 0.889E+03   0.166E+03 0.290E+03 -.887E+03   -.865E-01 0.903E+00 -.164E+01   -.433E-01 -.293E-01 0.331E-01
   -.592E+03 0.267E+03 -.536E+03   0.592E+03 -.267E+03 0.536E+03   0.643E+00 0.892E-01 0.400E+00   0.250E-02 -.127E-01 -.605E-01
   -.718E+03 -.452E+03 0.676E+02   0.717E+03 0.451E+03 -.674E+02   0.948E+00 0.775E+00 -.223E+00   0.381E-01 -.332E-01 -.864E-02
   0.359E+03 0.775E+03 0.204E+03   -.359E+03 -.774E+03 -.203E+03   -.539E+00 -.853E+00 -.119E+01   -.244E-01 0.128E-01 0.214E-01
   -.815E+03 -.158E+04 0.233E+03   0.814E+03 0.158E+04 -.234E+03   0.124E+01 0.175E+01 0.961E+00   -.132E-01 -.197E-01 0.528E-02
   -.300E+03 -.145E+04 0.104E+04   0.301E+03 0.145E+04 -.104E+04   -.341E+00 0.265E+01 -.825E+00   -.103E-01 0.332E-01 0.294E-01
   -.119E+04 -.328E+03 -.134E+04   0.119E+04 0.328E+03 0.134E+04   0.165E+01 0.177E+00 0.229E+01   0.300E-01 -.137E-01 -.337E-01
   0.123E+04 0.710E+03 0.114E+04   -.123E+04 -.709E+03 -.114E+04   -.207E+01 -.664E+00 -.164E+01   0.916E-02 -.589E-01 -.345E-01
   0.269E+03 0.835E+03 -.955E+03   -.269E+03 -.834E+03 0.956E+03   -.773E-01 -.488E+00 -.826E+00   0.783E-01 -.600E-01 -.279E-01
   -.118E+04 -.123E+04 -.748E+03   0.118E+04 0.123E+04 0.747E+03   0.102E+01 0.322E+01 0.172E+01   -.487E-02 -.224E-01 0.214E-01
   0.134E+04 0.125E+04 0.190E+03   -.133E+04 -.124E+04 -.190E+03   -.194E+01 -.230E+01 -.136E+00   -.145E-01 -.104E-01 -.208E-01
   0.872E+03 -.113E+04 0.967E+03   -.871E+03 0.113E+04 -.967E+03   -.105E+01 0.149E+01 -.284E-01   0.595E-01 -.751E-01 -.495E-01
   0.200E+03 -.899E+03 0.718E+02   -.200E+03 0.898E+03 -.709E+02   -.157E+00 0.116E+01 -.861E+00   -.109E-01 0.171E-01 -.934E-02
   0.295E+03 -.180E+04 0.365E+03   -.294E+03 0.180E+04 -.364E+03   -.152E+01 0.415E+01 -.943E+00   0.189E-01 -.675E-02 0.672E-02
   0.640E+03 -.664E+02 0.481E+03   -.640E+03 0.662E+02 -.480E+03   -.450E+00 0.187E+00 -.862E+00   0.108E-01 0.430E-01 0.545E-01
   -.564E+03 0.953E+03 -.145E+04   0.563E+03 -.952E+03 0.144E+04   0.131E+01 -.107E+01 0.283E+01   -.288E-01 -.931E-02 -.353E-01
   0.101E+04 0.131E+04 -.874E+03   -.101E+04 -.130E+04 0.872E+03   -.260E+01 -.324E+01 0.228E+01   0.155E-01 0.291E-01 -.716E-02
   -.287E+03 -.744E+03 -.835E+03   0.288E+03 0.744E+03 0.835E+03   -.794E+00 -.208E+00 0.890E+00   0.292E-01 0.736E-01 -.477E-01
   0.159E+04 -.520E+03 0.873E+03   -.159E+04 0.518E+03 -.872E+03   -.380E+01 0.205E+01 -.149E+01   -.317E-02 0.115E-01 0.448E-01
   0.402E+03 -.688E+02 -.488E+03   -.403E+03 0.686E+02 0.486E+03   0.584E+00 0.194E+00 0.162E+01   -.230E-01 -.485E-01 -.381E-01
   -.196E+03 0.269E+03 -.166E+04   0.196E+03 -.269E+03 0.166E+04   0.263E+00 -.556E+00 0.258E+01   0.159E-01 -.309E-01 -.200E-01
   -.488E+03 -.653E+03 -.166E+04   0.486E+03 0.651E+03 0.165E+04   0.187E+01 0.236E+01 0.506E+01   -.357E-01 0.175E-01 -.127E-01
   0.172E+04 0.351E+03 0.389E+03   -.172E+04 -.351E+03 -.389E+03   -.254E+01 -.431E+00 -.814E+00   -.895E-01 -.163E-02 0.161E-01
   0.125E+04 -.142E+04 0.108E+03   -.124E+04 0.142E+04 -.109E+03   -.345E+01 0.271E+01 0.773E+00   -.190E-01 -.241E-01 0.525E-01
   -.161E+03 -.174E+04 -.493E+03   0.161E+03 0.174E+04 0.493E+03   0.102E+00 0.323E+01 0.242E+00   0.272E-01 -.172E-01 0.827E-02
   0.938E+03 -.123E+04 -.707E+03   -.938E+03 0.123E+04 0.707E+03   -.420E+00 0.184E+01 -.386E+00   0.139E-02 0.238E-01 -.380E-01
   0.125E+04 0.579E+03 -.622E+03   -.125E+04 -.580E+03 0.623E+03   -.609E+00 0.398E+00 -.670E+00   0.442E-01 0.130E-01 0.112E-01
   0.190E+03 -.143E+04 -.116E+04   -.190E+03 0.143E+04 0.116E+04   -.939E-01 0.381E+01 0.386E+01   0.966E-02 -.307E-02 -.289E-02
   0.792E+03 0.501E+03 -.161E+04   -.790E+03 -.499E+03 0.161E+04   -.137E+01 -.197E+01 0.354E+01   -.184E-01 0.112E-01 0.529E-02
   0.141E+04 -.623E+03 -.111E+03   -.141E+04 0.622E+03 0.112E+03   -.885E+00 0.370E+00 -.574E+00   0.848E-02 0.538E-01 -.630E-01
   0.602E+03 -.501E+03 -.161E+04   -.602E+03 0.500E+03 0.161E+04   0.402E+00 0.970E+00 0.189E+01   -.880E-02 -.874E-02 0.135E-01
   0.134E+04 -.454E+03 -.115E+04   -.133E+04 0.453E+03 0.115E+04   -.247E+01 0.972E+00 0.154E+01   -.176E-01 0.294E-01 0.286E-01
   0.171E+04 -.184E+02 -.503E+03   -.170E+04 0.185E+02 0.502E+03   -.643E+01 -.276E-01 0.175E+01   -.167E-01 -.448E-01 -.461E-03
   0.214E+00 0.167E+01 -.101E+01   0.409E-11 -.115E-11 -.279E-11   -.305E+00 -.166E+01 0.101E+01   0.987E-02 0.136E-01 -.379E-01

 POSITION                                       TOTAL-FORCE (eV/Angst)
     15.52327      9.35365      9.50526        -0.008646     -0.001476      0.003303
     14.74968     11.62112      8.13972         0.015959      0.002433     -0.010252
     12.39223     11.82893      6.51947         0.002952      0.006219     -0.002009
     15.89907      9.85334     12.24843        -0.001978     -0.005808     -0.001137
     16.36159     11.98420     10.41124        -0.003828     -0.001018      0.000156
     11.63057     10.28293      8.71665        -0.005719      0.001802     -0.008266
     14.16383     14.02040      6.78031        -0.003433      0.004425     -0.001175
     13.41223      8.48587     12.84961        -0.001038     -0.002505      0.008513
     13.00849      8.20808     10.09607         0.005223     -0.000443      0.009923
     16.75077     14.71827     11.52590        -0.009012      0.008095     -0.005330
     12.05713      6.98663     14.93647        -0.005116      0.002735     -0.000415
     15.73603      7.75448     14.12557         0.002359     -0.002082      0.004193
     15.31518     14.34352      9.22481         0.007179     -0.000600     -0.002985
     10.28285      7.92077      9.68785         0.007734      0.006838      0.002868
     13.56640     10.89568     10.79528        -0.002088      0.002114     -0.000465
     10.93337      7.14013     12.35470         0.002451     -0.011231     -0.002725
     16.50610     12.53401     13.23094        -0.001982     -0.002762     -0.002025
     16.16227     10.40542     15.01243        -0.004202     -0.004589     -0.004054
      9.91600     12.38877      7.80552        -0.007499      0.002095     -0.009773
     11.43265     14.50814      6.79575        -0.000318     -0.001057      0.001308
     12.61558     13.14805      9.15600         0.005858      0.006611     -0.006173
     13.73498     11.27749     13.67149         0.000491      0.001689      0.011598
     14.19170     13.42671     11.80993        -0.010934      0.000985      0.000757
     11.02920      9.83848     11.66493         0.010438     -0.003829      0.002396
     14.27159     16.19689     11.15912        -0.002451      0.007958     -0.003168
     13.03361     15.94063      8.63560         0.001313     -0.000826     -0.004987
     15.12934     12.91973     15.63238         0.002016     -0.004372      0.000601
      8.85417     10.28877      9.38422        -0.000374      0.002975     -0.002194
     11.35807      9.62244     14.50456        -0.002188     -0.002642      0.001684
     15.24701     15.18327     13.82325        -0.006712      0.001818     -0.003920
      8.44793      8.54943     11.77061         0.008332     -0.000072      0.008044
     10.24675     14.94959      9.22391        -0.004575      0.009163     -0.016346
     11.63641     14.50739     11.80974        -0.006540     -0.005342     -0.000715
     11.56794     17.08256     10.75075        -0.002485      0.000384     -0.003726
     10.36991     12.31309     10.64872         0.006225     -0.002555     -0.008812
     13.81151      9.08125     15.68885        -0.008692     -0.002167      0.008162
      9.26201      7.90191     14.52896        -0.001852     -0.011598     -0.001552
     12.79275     14.06490     14.49996         0.001089     -0.004816      0.008501
      7.95248     13.23697      9.68308         0.000361     -0.000679     -0.011964
     10.97047     12.19235     13.44032         0.000489      0.004281     -0.000955
     12.56609     11.61340     16.22805        -0.004664     -0.000365      0.013922
     13.27054     14.22057     17.23422         0.005145     -0.000510      0.010355
      7.11750     11.02037     11.33726         0.015960      0.004828      0.001651
      9.09578     15.77757     11.55521         0.001084      0.004801     -0.001925
     12.58629     16.64876     13.40263        -0.011415     -0.002610     -0.000817
      9.99304     14.95755     14.15348        -0.000428     -0.003665      0.002660
      8.63880     10.52743     13.75681        -0.009194     -0.008302      0.005856
     11.64781     16.20135     15.99915         0.000203     -0.000102      0.000716
      9.75661     10.86210     16.35785         0.003169     -0.002902      0.010710
      8.39094     13.23452     12.52381         0.011208     -0.004524     -0.001093
     10.60178     13.60072     16.59974         0.000102      0.002636      0.003222
      8.29130     12.97699     15.30993         0.011013     -0.009778      0.002264
      6.22471     11.90531     13.80421        -0.000995      0.020340     -0.004406
    total drift:                               -0.080975      0.017915     -0.031305

  FREE ENERGIE OF THE ION-ELECTRON SYSTEM (eV)
  free  energy   TOTEN  =      -115.58271690 eV

  energy  without entropy=     -115.58271690  energy(sigma->0) =     -115.58271690

 d Force = 0.1033063E-02[-0.719E-03, 0.279E-02]  d Energy = 0.1337461E-02-0.304E-03
 d Force =-0.1973702E+02[-0.198E+02,-0.197E+02]  d Ewald  =-0.1973702E+02 0.755E-05

 reached required accuracy - stopping structural energy minimisation