 vasp.5.3.5 31Mar14 (build Feb 01 2018 12:10:03) gamma-only

 executed on             LinuxIFC date 2019.03.25  03:16:39

 INCAR:
 POTCAR:    PAW_PBE Ag 02Apr2005
 POTCAR:    PAW_PBE Ag 02Apr2005
   VRHFIN =Ag : s1 d10

   TITEL  = PAW_PBE Ag 02Apr2005
   POMASS =  107.868; ZVAL   =   11.000    mass and valenz
   ENMAX  =  249.844; ENMIN  =  187.383 eV

  PAW_PBE Ag 02Apr2005                  :

 POSCAR: Al51, -162.66536496 <s> Ag </s>
  positions in direct lattice
 exchange correlation table for  LEXCH =        8
   RHO(1)=    0.500       N(1)  =     2000
   RHO(2)=  100.500       N(2)  =     4000

 ion  position               nearest neighbor table
   1  0.293  0.451  0.557-   4 2.74   2 2.77   8 2.84  10 2.85   3 2.95  12 3.09
   2  0.347  0.440  0.662-   7 2.69   9 2.76   1 2.77  12 2.89   3 3.04  23 3.51
   3  0.360  0.551  0.595-  12 2.80   6 2.82  13 2.86   7 2.94   1 2.95  16 2.96   4 2.96  25 2.99
                             2 3.04
   4  0.294  0.546  0.487-   6 2.72   1 2.74  10 2.79   5 2.87  14 2.91   3 2.96  16 3.03
   5  0.285  0.644  0.414-  17 2.80   6 2.86   4 2.87  14 2.87
   6  0.349  0.644  0.519-  13 2.71   4 2.72  17 2.80   3 2.82  22 2.82   5 2.86  16 2.89  28 3.30

   7  0.432  0.512  0.692-   2 2.69  18 2.73  21 2.73  23 2.91   3 2.94  25 2.97  12 3.19
   8  0.358  0.354  0.524-   9 2.69  11 2.74  10 2.81   1 2.84  12 3.00  19 3.01
   9  0.406  0.343  0.629-  23 2.66   8 2.69   2 2.76  19 2.78  12 3.00
  10  0.364  0.453  0.457-  15 2.74  16 2.76  24 2.78   4 2.79   8 2.81   1 2.85  11 2.89  14 2.92
                            12 2.95
  11  0.424  0.349  0.427-   8 2.74  20 2.80  24 2.84  27 2.86  10 2.89  15 2.91  19 3.05
  12  0.425  0.454  0.568-   3 2.80  19 2.80  26 2.84   2 2.89  25 2.91  10 2.95  16 2.96  24 2.98
                             9 3.00  23 3.00   8 3.00   1 3.09   7 3.19
  13  0.419  0.658  0.610-   6 2.71  18 2.76  35 2.78  22 2.83  25 2.84   3 2.86  28 3.17
  14  0.364  0.555  0.384-  29 2.76  16 2.77   5 2.87   4 2.91  10 2.92  17 3.03  32 3.06  15 3.14

  15  0.373  0.427  0.343-  27 2.73  10 2.74  29 2.80  11 2.91  14 3.14
  16  0.424  0.551  0.486-  10 2.76  14 2.77  24 2.79  28 2.80  37 2.83  25 2.83   6 2.89   3 2.96
                            12 2.96   4 3.03  32 3.25  17 3.35
  17  0.401  0.675  0.416-  32 2.67  28 2.76   6 2.80   5 2.80  22 2.99  14 3.03  16 3.35
  18  0.483  0.616  0.700-   7 2.73  13 2.76  31 2.79  25 2.92  21 2.99  35 3.01
  19  0.486  0.354  0.541-  34 2.78   9 2.78  12 2.80  20 2.84  26 2.91   8 3.01  11 3.05  24 3.07
                            23 3.16
  20  0.543  0.342  0.435-  11 2.80  38 2.80  19 2.84  34 2.87  39 2.91  30 2.93  27 2.95  24 2.96

  21  0.548  0.507  0.682-  23 2.70   7 2.73  43 2.77  31 2.79  25 2.88  26 2.94  18 2.99  33 3.00
                            40 3.32
  22  0.419  0.742  0.523-  28 2.72   6 2.82  13 2.83  17 2.99  35 3.61
  23  0.493  0.407  0.666-   9 2.66  21 2.70  33 2.74   7 2.91  26 2.95  12 3.00  19 3.16   2 3.51

  24  0.483  0.452  0.454-  37 2.77  10 2.78  16 2.79  11 2.84  27 2.88  30 2.89  36 2.95  20 2.96
                            12 2.98  26 3.01  19 3.07
  25  0.488  0.560  0.588-  26 2.75  16 2.83  13 2.84  21 2.88  12 2.91  18 2.92  35 2.92  37 2.96
                             7 2.97   3 2.99  40 3.04  28 3.09
  26  0.547  0.461  0.565-  25 2.75  12 2.84  45 2.85  33 2.89  19 2.91  21 2.94  30 2.94  23 2.95
                            37 2.97  34 2.99  24 3.01  40 3.01
  27  0.488  0.406  0.340-  39 2.73  15 2.73  36 2.79  29 2.84  11 2.86  24 2.88  20 2.95
  28  0.487  0.653  0.494-  22 2.72  35 2.75  41 2.75  37 2.76  17 2.76  16 2.80  32 3.02  25 3.09
                            13 3.17   6 3.30
  29  0.446  0.515  0.308-  36 2.67  14 2.76  32 2.76  15 2.80  27 2.84
  30  0.606  0.449  0.455-  45 2.79  38 2.81  37 2.83  39 2.84  46 2.85  24 2.89  20 2.93  36 2.93
                            26 2.94  49 2.95  47 2.98  34 3.07
  31  0.602  0.614  0.685-  21 2.79  18 2.79  40 2.81  42 2.87  35 2.90  48 2.93  43 3.00
  32  0.483  0.607  0.373-  17 2.67  29 2.76  36 2.79  44 2.80  28 3.02  14 3.06  37 3.09  16 3.25

  33  0.609  0.399  0.652-  23 2.74  43 2.82  34 2.83  45 2.86  26 2.89  21 3.00
  34  0.605  0.350  0.541-  38 2.73  19 2.78  45 2.78  33 2.83  20 2.87  26 2.99  30 3.07
  35  0.536  0.676  0.599-  48 2.73  28 2.75  13 2.78  31 2.90  25 2.92  18 3.01  41 3.01  40 3.18
                            22 3.61
  36  0.548  0.508  0.360-  29 2.67  47 2.72  32 2.79  27 2.79  44 2.85  39 2.87  37 2.87  30 2.93
                            24 2.95
  37  0.545  0.551  0.475-  28 2.76  24 2.77  30 2.83  16 2.83  49 2.86  36 2.87  40 2.88  41 2.92
                            25 2.96  26 2.97  44 3.02  32 3.09
  38  0.663  0.344  0.440-  34 2.73  20 2.80  30 2.81  50 2.84  39 2.94  46 3.11
  39  0.605  0.400  0.343-  27 2.73  50 2.77  30 2.84  36 2.87  20 2.91  47 2.92  38 2.94
  40  0.617  0.569  0.574-  49 2.78  31 2.81  43 2.83  37 2.88  41 2.89  48 2.90  51 2.96  26 3.01
                            25 3.04  45 3.06  42 3.17  35 3.18  21 3.32
  41  0.605  0.660  0.491-  48 2.74  28 2.75  49 2.80  44 2.82  40 2.89  37 2.92  35 3.01
  42  0.720  0.609  0.653-  48 2.75  43 2.77  51 2.79  31 2.87  40 3.17
  43  0.666  0.505  0.664-  42 2.77  21 2.77  45 2.82  33 2.82  40 2.83  31 3.00  51 3.20
  44  0.603  0.615  0.379-  32 2.80  41 2.82  49 2.83  36 2.85  47 2.90  37 3.02
  45  0.668  0.450  0.557-  51 2.73  46 2.76  34 2.78  30 2.79  43 2.82  26 2.85  33 2.86  40 3.06
                            49 3.34
  46  0.728  0.459  0.455-  45 2.76  49 2.77  50 2.79  30 2.85  47 2.96  51 3.05  38 3.11
  47  0.664  0.509  0.358-  36 2.72  49 2.78  50 2.88  44 2.90  39 2.92  46 2.96  30 2.98
  48  0.653  0.686  0.595-  35 2.73  41 2.74  42 2.75  40 2.90  31 2.93
  49  0.667  0.560  0.466-  51 2.73  46 2.77  47 2.78  40 2.78  41 2.80  44 2.83  37 2.86  30 2.95
                            45 3.34
  50  0.723  0.401  0.351-  39 2.77  46 2.79  38 2.84  47 2.88
  51  0.740  0.542  0.555-  49 2.73  45 2.73  42 2.79  40 2.96  46 3.05  43 3.20

  LATTYP: Found a simple cubic cell.
 ALAT       =    23.3383220734

  Lattice vectors:

 A1 = (  23.3383220734,   0.0000000000,   0.0000000000)
 A2 = (   0.0000000000,  23.3383220734,   0.0000000000)
 A3 = (   0.0000000000,   0.0000000000,  23.3383220734)

Analysis of symmetry for initial positions (statically):
 Subroutine PRICEL returns:
 Original cell was already a primitive cell.

 Routine SETGRP: Setting up the symmetry group for a
 simple cubic supercell.

 Subroutine GETGRP returns: Found  1 space group operations
 (whereof  1 operations were pure point group operations)
 out of a pool of 48 trial point group operations.

The static configuration has the point symmetry C_1 .

Analysis of symmetry for dynamics (positions and initial velocities):
 Subroutine PRICEL returns:
 Original cell was already a primitive cell.

 Routine SETGRP: Setting up the symmetry group for a
 simple cubic supercell.

 Subroutine GETGRP returns: Found  1 space group operations
 (whereof  1 operations were pure point group operations)
 out of a pool of 48 trial point group operations.

The dynamic configuration has the point symmetry C_1 .

Analysis of magnetic symmetry:
 Subroutine PRICEL returns:
 Original cell was already a primitive cell.

 Subroutine MAGSYM returns: Found  1 space group operations
 (whereof  1 operations were pure point group operations)
 out of a pool of  1 trial space group operations
 (whereof  1 operations were pure point group operations)
 and found also     1 'primitive' translations

The magnetic configuration has the point symmetry C_1 .

 KPOINTS: Gamma-point only
  k-points in reciprocal lattice
Space group operators:
 irot       det(A)        alpha          n_x          n_y          n_z        tau_x        tau_y        tau_z
    1     1.000000     0.000001     1.000000     0.000000     0.000000     0.000000     0.000000     0.000000

 I would recommend the setting:
   dimension x,y,z NGX =    90 NGY =   90 NGZ =   90
 SYSTEM =  unknown system
 POSCAR =  Al51, -162.66536496 <s> Ag </s>

 Startparameter for this run:
   NWRITE =      2    write-flag & timer
   PREC   = normal    normal or accurate (medium, high low for compatibility)
   ISTART =      0    job   : 0-new  1-cont  2-samecut
   ICHARG =      2    charge: 1-file 2-atom 10-const
   ISPIN  =      2    spin polarized calculation?
   LNONCOLLINEAR =      F non collinear calculations
   LSORBIT =      F    spin-orbit coupling
   INIWAV =      1    electr: 0-lowe 1-rand  2-diag
   LASPH  =      F    aspherical Exc in radial PAW
   METAGGA=      F    non-selfconsistent MetaGGA calc.

 Electronic Relaxation 1
   ENCUT  =  249.8 eV  18.36 Ry    4.29 a.u.  30.08 30.08 30.08*2*pi/ulx,y,z
   ENINI  =  249.8     initial cutoff
   ENAUG  =  412.5 eV  augmentation charge cutoff
   NELM   =     60;   NELMIN=  2; NELMDL= -5     # of ELM steps
   EDIFF  = 0.1E-03   stopping-criterion for ELM
   LREAL  =      F    real-space projection
   NLSPLINE    = F    spline interpolate recip. space projectors
   LCOMPAT=      F    compatible to vasp.4.4
   GGA_COMPAT  = T    GGA compatible to vasp.4.4-vasp.4.6
   LMAXPAW     = -100 max onsite density
   LMAXMIX     =    2 max onsite mixed and CHGCAR
   VOSKOWN=      0    Vosko Wilk Nusair interpolation
   ROPT   =    0.00000
 Ionic relaxation
   EDIFFG = 0.1E-02   stopping-criterion for IOM
   NSW    =   1000    number of steps for IOM
   NBLOCK =      1;   KBLOCK =   1000    inner block; outer block
   IBRION =      2    ionic relax: 0-MD 1-quasi-New 2-CG
   NFREE  =      1    steps in history (QN), initial steepest desc. (CG)
   ISIF   =      2    stress and relaxation
   IWAVPR =     11    prediction:  0-non 1-charg 2-wave 3-comb
   ISYM   =      2    0-nonsym 1-usesym 2-fastsym
   LCORR  =      T    Harris-Foulkes like correction to forces

   POTIM  = 0.1000    time-step for ionic-motion
   TEIN   =    0.0    initial temperature
   TEBEG  =    0.0;   TEEND  =   0.0 temperature during run
   SMASS  =  -3.00    Nose mass-parameter (am)
   estimated Nose-frequenzy (Omega)   =  0.10E-29 period in steps =****** mass=  -0.124E-25a.u.
   SCALEE = 1.0000    scale energy and forces
   NPACO  =    256;   APACO  = 16.0  distance and # of slots for P.C.
   PSTRESS=    0.0 pullay stress

  Mass of Ions in am
   POMASS = 107.87
  Ionic Valenz
   ZVAL   =  11.00
  Atomic Wigner-Seitz radii
  virtual crystal weights
   VCA    =   1.00
   NELECT =     561.0000    total number of electrons
   NUPDOWN=      -1.0000    fix difference up-down

 DOS related values:
   EMIN   =  10.00;   EMAX   =-10.00  energy-range for DOS
   EFERMI =   0.00
   ISMEAR =     0;   SIGMA  =   0.00  broadening in eV -4-tet -1-fermi 0-gaus

 Electronic relaxation 2 (details)
   IALGO  =     38    algorithm
   LDIAG  =      T    sub-space diagonalisation (order eigenvalues)
   LSUBROT=      F    optimize rotation matrix (better conditioning)
   TURBO    =      0    0=normal 1=particle mesh
   IRESTART =      0    0=no restart 2=restart with 2 vectors
   NREBOOT  =      0    no. of reboots
   NMIN     =      0    reboot dimension
[...]
      31 -82.1261      32 -82.1336      33 -82.1004      34 -82.1941      35 -82.0896
      36 -82.2519      37 -82.5691      38 -82.0383      39 -82.0816      40 -82.2996
      41 -82.2656      42 -82.1359      43 -82.0888      44 -82.0971      45 -81.9711
      46 -81.9781      47 -82.0382      48 -82.0159      49 -82.1510      50 -81.9320
      51 -81.9377

 E-fermi :  -3.2709     XC(G=0):  -1.3781     alpha+bet : -0.9209

[...]

 spin component 2

 k-point     1 :       0.0000    0.0000    0.0000
  band No.  band energies     occupation
      1      -9.6933      1.00000
      2      -9.1091      1.00000
      3      -9.0974      1.00000
      4      -9.0438      1.00000
      5      -9.0217      1.00000
      6      -9.0125      1.00000
      7      -8.9604      1.00000
      8      -8.9415      1.00000
      9      -8.9350      1.00000
     10      -8.8905      1.00000
     11      -8.8444      1.00000
     12      -8.8158      1.00000
     13      -8.7994      1.00000
     14      -8.7833      1.00000
     15      -8.7399      1.00000
     16      -8.7230      1.00000
     17      -8.7217      1.00000
     18      -8.6960      1.00000
     19      -8.6852      1.00000
     20      -8.6784      1.00000
     21      -8.6623      1.00000
     22      -8.6555      1.00000
     23      -8.6199      1.00000
     24      -8.6047      1.00000
     25      -8.5901      1.00000
     26      -8.5874      1.00000
     27      -8.5745      1.00000
     28      -8.5705      1.00000
     29      -8.5513      1.00000
     30      -8.5399      1.00000
     31      -8.5249      1.00000
     32      -8.5161      1.00000
     33      -8.5102      1.00000
     34      -8.4858      1.00000
     35      -8.4851      1.00000
     36      -8.4776      1.00000
     37      -8.4701      1.00000
     38      -8.4509      1.00000
     39      -8.4332      1.00000
     40      -8.4150      1.00000
     41      -8.3998      1.00000
     42      -8.3853      1.00000
     43      -8.3751      1.00000
     44      -8.3555      1.00000
     45      -8.3521      1.00000
     46      -8.3427      1.00000
     47      -8.3180      1.00000
     48      -8.3021      1.00000
     49      -8.2876      1.00000
     50      -8.2807      1.00000
     51      -8.2690      1.00000
     52      -8.2595      1.00000
     53      -8.2510      1.00000
     54      -8.2341      1.00000
     55      -8.2098      1.00000
     56      -8.2073      1.00000
     57      -8.1920      1.00000
     58      -8.1777      1.00000
     59      -8.1677      1.00000
     60      -8.1568      1.00000
[...]
    350       1.3169      0.00000
    351       1.3682      0.00000
    352       1.3818      0.00000
    353       1.3958      0.00000
    354       1.4007      0.00000
    355       1.4214      0.00000
    356       1.4294      0.00000
    357       1.4440      0.00000
    358       1.4704      0.00000
    359       1.4960      0.00000
    360       1.5356      0.00000
    361       1.5489      0.00000
    362       1.5646      0.00000
    363       1.6035      0.00000
    364       1.6297      0.00000

[...]

 soft charge-density along one line, spin component           2
         0         1         2         3         4         5         6         7         8         9
 total charge-density along one line

------------------------ aborting loop because EDIFF is reached ----------------------------------------

  FORCE on cell =-STRESS in cart. coord.  units (eV):
  Direction    XX          YY          ZZ          XY          YZ          ZX
  Alpha Z   174.03863   174.03863   174.03863
  Ewald   70593.49773 39058.67467 41019.65644 -4066.82872  5714.13387  1871.25259
  Hartree 86724.20992 56448.88975 58336.11333 -3892.48854  5324.91268  1746.43874
  E(xc)   -2957.07377 -2958.41750 -2958.30721     0.03042     0.55311     0.13526
  Local  ************************************  7966.45448-11032.37517 -3616.75035
  n-local  -521.10076  -527.20240  -526.93015    -2.14594    -0.50813    -0.40992
  augment  4685.74495  4686.60518  4686.86045    -1.43392    -1.96728    -0.20238
  Kinetic  6979.65078  6980.13280  6980.93795    -3.60321    -4.94901    -0.98806
  Fock        0.00000     0.00000     0.00000     0.00000     0.00000     0.00000
  Total     -17.19471   -17.44212   -17.74151    -0.01543    -0.19993    -0.52411
  in kB      -2.16719    -2.19837    -2.23611    -0.00194    -0.02520    -0.06606

 VOLUME and BASIS-vectors are now :
  energy-cutoff  :      249.84
  volume of cell :    12711.85
      direct lattice vectors                 reciprocal lattice vectors
    23.338322073  0.000000000  0.000000000     0.042847982  0.000000000  0.000000000
     0.000000000 23.338322073  0.000000000     0.000000000  0.042847982  0.000000000
     0.000000000  0.000000000 23.338322073     0.000000000  0.000000000  0.042847982

  length of vectors
    23.338322073 23.338322073 23.338322073     0.042847982  0.042847982  0.042847982

 FORCES acting on ions
    electron-ion (+dipol)            ewald-force                    non-local-force                 convergence-correction
   0.166E+04 0.500E+03 -.412E+03   -.166E+04 -.498E+03 0.411E+03   -.353E+01 -.271E+01 0.122E+01   0.993E-03 -.374E-03 0.705E-03
   0.113E+04 0.475E+03 -.135E+04   -.113E+04 -.473E+03 0.135E+04   -.223E+01 -.205E+01 0.355E+01   0.868E-03 -.187E-03 0.160E-03
   0.129E+04 -.477E+03 -.969E+03   -.129E+04 0.477E+03 0.968E+03   -.127E+01 0.387E+00 0.157E+01   0.119E-03 0.160E-03 0.782E-03
   0.167E+04 -.134E+03 0.144E+03   -.167E+04 0.134E+03 -.143E+03   -.239E+01 -.115E+00 -.649E+00   0.141E-02 0.142E-02 -.161E-02
   0.132E+04 -.761E+03 0.742E+03   -.131E+04 0.758E+03 -.738E+03   -.430E+01 0.239E+01 -.336E+01   0.200E-02 0.164E-02 0.127E-02
   0.128E+04 -.111E+04 -.314E+03   -.128E+04 0.111E+04 0.314E+03   -.177E+01 0.194E+01 0.229E+00   0.185E-03 0.151E-02 -.189E-02
   0.615E+03 -.105E+03 -.165E+04   -.615E+03 0.104E+03 0.165E+04   -.674E+00 0.244E+00 0.265E+01   -.243E-03 -.112E-02 -.133E-02
   0.116E+04 0.140E+04 -.110E+02   -.115E+04 -.140E+04 0.109E+02   -.304E+01 -.280E+01 0.108E+00   0.967E-03 -.188E-02 0.215E-03
   0.618E+03 0.141E+04 -.957E+03   -.617E+03 -.141E+04 0.955E+03   -.175E+01 -.384E+01 0.205E+01   0.374E-03 0.307E-03 -.416E-03
   0.131E+04 0.598E+03 0.573E+03   -.131E+04 -.598E+03 -.573E+03   -.156E+00 -.594E+00 0.384E-01   0.176E-02 0.422E-04 -.153E-02
   0.706E+03 0.149E+04 0.745E+03   -.704E+03 -.149E+04 -.744E+03   -.161E+01 -.368E+01 -.896E+00   0.596E-03 0.640E-03 -.132E-02
   0.674E+03 0.489E+03 -.490E+03   -.673E+03 -.488E+03 0.490E+03   -.730E+00 -.986E+00 0.155E+00   0.117E-02 -.817E-04 0.529E-03
   0.702E+03 -.126E+04 -.918E+03   -.701E+03 0.126E+04 0.916E+03   -.876E+00 0.154E+01 0.136E+01   -.622E-03 0.117E-02 -.451E-03
   0.104E+04 -.292E+03 0.126E+04   -.104E+04 0.292E+03 -.126E+04   -.116E+01 0.363E-01 -.162E+01   -.487E-03 0.795E-03 -.223E-03
   0.101E+04 0.618E+03 0.134E+04   -.101E+04 -.616E+03 -.134E+04   -.209E+01 -.198E+01 -.289E+01   0.174E-02 -.184E-03 0.119E-02
   0.683E+03 -.389E+03 0.196E+03   -.682E+03 0.390E+03 -.197E+03   -.840E+00 -.305E+00 0.158E+00   0.252E-03 0.468E-03 -.654E-03
   0.563E+03 -.133E+04 0.962E+03   -.563E+03 0.133E+04 -.961E+03   -.523E+00 0.269E+01 -.127E+01   -.148E-02 0.618E-04 0.518E-03
   0.272E+03 -.903E+03 -.159E+04   -.271E+03 0.901E+03 0.159E+04   -.999E+00 0.188E+01 0.429E+01   0.529E-03 0.339E-03 -.606E-03
   0.186E+03 0.160E+04 -.273E+03   -.184E+03 -.160E+04 0.272E+03   -.124E+01 -.129E+01 0.862E+00   -.578E-03 -.418E-03 0.865E-03
   -.141E+03 0.158E+04 0.618E+03   0.140E+03 -.158E+04 -.617E+03   0.786E+00 -.165E+01 -.771E+00   -.182E-02 0.115E-04 -.136E-02
   -.309E+03 0.123E+03 -.163E+04   0.308E+03 -.123E+03 0.163E+04   0.113E+01 -.277E+00 0.186E+01   0.305E-04 0.269E-04 -.135E-02
   0.416E+03 -.170E+04 -.138E+02   -.416E+03 0.169E+04 0.132E+02   -.273E+00 0.607E+01 0.519E+00   -.525E-03 -.106E-02 -.970E-03
   0.847E+02 0.975E+03 -.144E+04   -.845E+02 -.974E+03 0.144E+04   -.212E+00 -.927E+00 0.146E+01   -.403E-03 -.644E-03 -.630E-03
   0.287E+03 0.440E+03 0.514E+03   -.286E+03 -.440E+03 -.513E+03   -.119E+01 -.244E+00 -.107E+01   -.163E-02 -.268E-03 -.858E-03
   0.152E+03 -.430E+03 -.624E+03   -.152E+03 0.430E+03 0.623E+03   0.122E+00 0.474E+00 0.462E+00   -.117E-03 -.121E-02 0.102E-03
   -.300E+03 0.535E+03 -.486E+03   0.299E+03 -.534E+03 0.485E+03   0.771E+00 -.877E+00 0.700E+00   -.218E-02 0.362E-03 0.210E-02
   0.162E+03 0.940E+03 0.150E+04   -.161E+03 -.939E+03 -.150E+04   -.109E+01 -.130E+01 -.292E+01   -.415E-03 0.379E-04 0.535E-03
   -.466E+02 -.145E+04 0.384E+03   0.465E+02 0.145E+04 -.384E+03   0.130E+00 0.390E+00 -.359E+00   -.148E-02 0.123E-02 -.116E-02
   0.292E+03 -.238E+03 0.174E+04   -.292E+03 0.237E+03 -.174E+04   -.702E+00 0.122E+01 -.457E+01   0.384E-03 -.560E-04 0.280E-03
   -.693E+03 0.427E+03 0.377E+03   0.691E+03 -.426E+03 -.377E+03   0.146E+01 -.646E+00 -.295E+00   0.673E-03 0.236E-03 -.968E-03
   -.563E+03 -.791E+03 -.149E+04   0.562E+03 0.790E+03 0.148E+04   0.806E+00 0.109E+01 0.305E+01   0.487E-04 -.244E-03 -.639E-03
   0.111E+03 -.902E+03 0.128E+04   -.111E+03 0.902E+03 -.128E+04   0.459E+00 0.596E+00 -.755E+00   -.172E-03 0.706E-03 -.567E-03
   -.629E+03 0.114E+04 -.130E+04   0.630E+03 -.114E+04 0.129E+04   -.366E+00 -.333E+01 0.324E+01   -.101E-02 -.327E-03 0.117E-02
   -.514E+03 0.166E+04 -.397E+03   0.514E+03 -.166E+04 0.395E+03   0.357E+00 -.334E+01 0.185E+01   -.590E-03 -.205E-02 0.830E-03
   -.158E+03 -.158E+04 -.623E+03   0.158E+03 0.158E+04 0.622E+03   0.442E+00 0.155E+01 0.809E+00   0.165E-05 -.462E-03 0.983E-03
   -.311E+03 -.111E+03 0.147E+04   0.311E+03 0.112E+03 -.147E+04   0.671E+00 -.335E+00 -.566E-01   -.864E-03 -.599E-03 -.219E-02
   -.311E+03 -.468E+03 0.366E+03   0.311E+03 0.467E+03 -.365E+03   0.211E+00 0.562E+00 -.168E+00   -.838E-03 0.109E-02 -.233E-03
   -.997E+03 0.143E+04 0.310E+03   0.995E+03 -.143E+04 -.308E+03   0.152E+01 -.351E+01 -.129E+01   0.209E-03 -.478E-03 -.701E-03
   -.517E+03 0.903E+03 0.141E+04   0.515E+03 -.901E+03 -.141E+04   0.171E+01 -.193E+01 -.279E+01   -.600E-03 0.664E-03 -.123E-02
   -.802E+03 -.456E+03 -.456E+03   0.801E+03 0.455E+03 0.456E+03   0.691E+00 0.579E+00 0.946E+00   0.344E-03 0.645E-03 0.601E-03
   -.802E+03 -.151E+04 0.429E+03   0.801E+03 0.151E+04 -.427E+03   0.141E+01 0.273E+01 -.167E+01   0.282E-03 -.596E-03 0.283E-03
   -.137E+04 -.625E+03 -.877E+03   0.137E+04 0.622E+03 0.875E+03   0.395E+01 0.335E+01 0.201E+01   -.397E-03 -.939E-03 0.580E-03
   -.111E+04 0.341E+03 -.129E+04   0.111E+04 -.340E+03 0.129E+04   0.333E+00 -.683E+00 0.324E+01   0.939E-03 0.147E-03 0.494E-03
   -.692E+03 -.117E+04 0.129E+04   0.691E+03 0.117E+04 -.129E+04   0.136E+01 0.347E+01 -.316E+01   -.861E-03 0.517E-03 -.621E-03
   -.128E+04 0.918E+03 -.544E+03   0.128E+04 -.918E+03 0.543E+03   0.117E+01 0.388E-01 0.730E+00   0.381E-03 0.863E-03 0.297E-03
   -.163E+04 0.246E+03 0.316E+03   0.163E+04 -.245E+03 -.315E+03   0.237E+01 -.765E+00 -.128E+01   0.134E-03 -.624E-03 0.121E-02
   -.109E+04 -.345E+03 0.133E+04   0.109E+04 0.344E+03 -.133E+04   0.113E+01 0.102E+01 -.277E+01   -.101E-02 -.629E-03 -.177E-02
   -.956E+03 -.144E+04 -.394E+03   0.953E+03 0.144E+04 0.394E+03   0.313E+01 0.366E+01 0.156E+00   -.477E-03 -.793E-03 0.423E-03
   -.134E+04 -.750E+03 0.468E+03   0.134E+04 0.748E+03 -.468E+03   0.729E+00 0.175E+01 -.784E-01   -.155E-02 -.876E-03 0.255E-02
   -.118E+04 0.630E+03 0.101E+04   0.118E+04 -.628E+03 -.101E+04   0.388E+01 -.237E+01 -.372E+01   -.832E-03 -.303E-03 -.310E-03
   -.166E+04 -.149E+03 -.281E+03   0.165E+04 0.148E+03 0.280E+03   0.308E+01 0.116E+01 0.199E+00   -.860E-03 0.126E-03 0.198E-03
   0.117E+01 0.168E+01 -.108E+01   -.455E-11 -.369E-12 -.114E-11   -.120E+01 -.172E+01 0.105E+01   -.566E-02 -.118E-02 -.670E-02

 POSITION                                       TOTAL-FORCE (eV/Angst)
      6.73897     10.65286     13.13451        -0.009065     -0.003179      0.003084
      8.02860     10.36841     15.56554         0.002874     -0.000130     -0.006247
      8.06596     12.98380     13.98443        -0.003356     -0.003151      0.000715
      6.57763     12.79886     11.40840        -0.007460     -0.001488      0.002032
      6.37600     14.86504      9.63318         0.007968     -0.019941     -0.004882
      7.56110     15.25683     12.21635        -0.000550     -0.003466     -0.002834
     10.07989     12.13948     15.82812        -0.006006     -0.001647      0.000014
      8.24856      8.33679     12.24950        -0.005586      0.003888      0.006147
      9.30444      7.97519     14.77517         0.001464     -0.001848     -0.001278
      8.08887     10.60821     10.65483        -0.000103      0.000148     -0.010917
      9.81693      8.38714      9.91543        -0.000930      0.005917      0.002126
      9.65427     10.68544     13.26507        -0.001668      0.002755     -0.003224
      9.78444     15.27590     13.92086        -0.003655     -0.000709      0.000747
      8.34482     12.94354      8.86256         0.007613     -0.005216     -0.000869
      8.85234     10.32228      8.05734        -0.000119     -0.006475     -0.000355
      9.54863     13.09059     11.47221        -0.004853     -0.002264      0.000936
      9.05429     15.51370      9.84195         0.000626     -0.000985      0.003672
     11.50778     14.46667     16.07117        -0.002274      0.003819      0.003271
     11.09265      8.31771     12.54952        -0.001658      0.001814     -0.000555
     12.66935      8.31520     10.13758        -0.002744     -0.001040     -0.005660
     12.99813     11.92934     15.75266        -0.003649      0.000248      0.001632
      9.53873     17.30233     11.98144         0.000437     -0.004954      0.003102
     11.36172      9.64322     15.35698        -0.003578      0.003809     -0.004133
     11.13968     10.71810     10.69783         0.000644     -0.002277     -0.000913
     11.44782     13.07309     13.58954         0.002805     -0.001450      0.001748
     12.80470     10.68714     13.11405        -0.000347      0.004572      0.002935
     11.49078      9.44336      7.85536         0.003394      0.002706      0.005994
     11.38854     15.34774     11.43606        -0.005285     -0.004221      0.004063
     10.58715     12.12866      6.94073         0.007612     -0.000040      0.003454
     14.31605     10.58691     10.72730         0.006425     -0.003991      0.005368
     14.27837     14.46250     16.01489        -0.002020      0.001482     -0.003382
     11.10358     13.76603      9.08139         0.003189     -0.002450      0.004539
     14.16318      9.26651     15.17541        -0.006278     -0.004951     -0.006353
     13.89070      8.09773     12.59671        -0.001453      0.000527     -0.007355
     12.62694     15.83063     13.93040        -0.000994      0.002497      0.004037
     12.92247     11.70812      8.42596         0.003060     -0.002471      0.008701
     12.83487     12.90437     11.16996         0.005436      0.003964      0.004140
     15.79484      8.25987     10.51203         0.007102      0.001681     -0.005320
     14.35413      9.30201      8.09864         0.007870      0.001574      0.005039
     14.52608     13.22551     13.48672         0.002638      0.001361     -0.003127
     14.19642     15.36265     11.59629        -0.000665      0.003111      0.000212
     16.85205     13.96351     15.02700        -0.001771     -0.000531     -0.002004
     15.83428     11.43269     15.26613        -0.005123      0.002249     -0.003262
     14.01280     14.17861      8.98981        -0.002998      0.007194      0.001082
     16.08719      9.67593     13.03873         0.006068     -0.003647     -0.000988
     17.32328     10.69086     10.68098        -0.001722      0.005001      0.000616
     15.78559     11.82308      8.48982         0.002574      0.002441     -0.000024
     15.37680     16.08780     13.99409         0.000217      0.002521      0.000946
     15.83440     13.11280     10.93807         0.005341      0.014164      0.001016
     17.13476      9.36039      8.27998         0.006728      0.004874     -0.003047
     17.40099     12.15350     13.02837        -0.006177     -0.001792     -0.004637
    total drift:                               -0.034076     -0.038563     -0.035526

  FREE ENERGIE OF THE ION-ELECTRON SYSTEM (eV)
  free  energy   TOTEN  =      -110.88622864 eV

  energy  without entropy=     -110.88622864  energy(sigma->0) =     -110.88622864

 d Force =-0.1047058E-04[-0.243E-04, 0.341E-05]  d Energy =-0.2972237E-04 0.193E-04
 d Force = 0.4137372E-01[ 0.414E-01, 0.414E-01]  d Ewald  = 0.4137372E-01 0.102E-08

 reached required accuracy - stopping structural energy minimisation