 vasp.5.3.5 31Mar14 (build Feb 01 2018 12:10:03) gamma-only

 executed on             LinuxIFC date 2019.03.29  22:52:07

 INCAR:
 POTCAR:    PAW_PBE Ag 02Apr2005
 POTCAR:    PAW_PBE Ag 02Apr2005
   VRHFIN =Ag : s1 d10

   TITEL  = PAW_PBE Ag 02Apr2005
   POMASS =  107.868; ZVAL   =   11.000    mass and valenz
   ENMAX  =  249.844; ENMIN  =  187.383 eV

  PAW_PBE Ag 02Apr2005                  :

 POSCAR: Si55, -264.26630595 <s> Ag </s>
  positions in direct lattice
  velocities in cartesian coordinates
 exchange correlation table for  LEXCH =        8
   RHO(1)=    0.500       N(1)  =     2000
   RHO(2)=  100.500       N(2)  =     4000

 ion  position               nearest neighbor table
   1  0.532  0.545  0.417-  17 2.77   2 2.82  21 2.84   7 3.00   6 3.01  13 3.06  24 3.19
   2  0.632  0.605  0.444-   7 2.74   6 2.78   3 2.79   8 2.81   1 2.82   9 2.86  18 2.91  14 3.06
                            17 3.36
   3  0.659  0.709  0.394-   2 2.79   5 2.79  16 2.85   9 2.85   6 2.88  15 3.25
   4  0.474  0.745  0.483-  14 2.79  13 2.82  12 2.83  16 2.86   6 2.94  26 2.97
   5  0.714  0.793  0.457-   9 2.78   3 2.79  27 2.82  23 2.86  16 2.91  15 2.95
   6  0.542  0.672  0.408-   2 2.78  14 2.82  13 2.88   3 2.88   4 2.94   1 3.01  16 3.06
   7  0.635  0.491  0.471-   2 2.74  20 2.83  10 2.84  24 2.85  11 2.92   1 3.00   8 3.04  17 3.16
                            18 3.31
   8  0.738  0.568  0.487-   2 2.81  18 2.81  25 2.82  10 2.87  19 2.87  15 3.00   7 3.04   9 3.35

   9  0.678  0.695  0.513-  15 2.69  18 2.76   5 2.78  37 2.80   3 2.85   2 2.86  27 2.90  14 2.90
                            16 2.95  25 2.98  23 3.14   8 3.35
  10  0.726  0.461  0.545-  31 2.78  19 2.83   7 2.84  11 2.85   8 2.87  20 2.88  29 3.10
  11  0.633  0.384  0.533-  20 2.77  24 2.84  10 2.85  29 2.87  34 2.89   7 2.92
  12  0.535  0.785  0.579-  37 2.81  36 2.82   4 2.83  16 2.90  14 2.97  26 2.98  38 2.99  23 3.03

  13  0.453  0.627  0.478-   4 2.82  22 2.82  21 2.83  17 2.88   6 2.88  14 2.91  26 3.03   1 3.06

[...]

  17  0.534  0.554  0.534-   1 2.77  20 2.80  24 2.83  14 2.85  21 2.88  13 2.88  22 2.89  42 2.89
                            28 2.91  18 3.02   7 3.16   2 3.36  30 3.54
  18  0.652  0.594  0.566-  20 2.75   9 2.76  42 2.78  44 2.80   8 2.81   2 2.91  17 3.02  14 3.03
                            37 3.18  25 3.20   7 3.31  40 3.34  31 3.37
  19  0.818  0.532  0.573-  25 2.77  31 2.80  10 2.83   8 2.87  45 2.97
  20  0.614  0.486  0.589-  29 2.71  18 2.75  11 2.77  40 2.79  17 2.80  34 2.82   7 2.83  28 2.84
                            10 2.88  24 3.07  31 3.19  42 3.58  39 3.60
  21  0.435  0.508  0.479-  22 2.81  24 2.82  30 2.83  13 2.83   1 2.84  17 2.88
  22  0.421  0.571  0.579-  33 2.71  32 2.80  21 2.81  13 2.82  26 2.87  17 2.89  30 2.90  28 3.04
                            35 3.16
  23  0.659  0.817  0.563-  37 2.79   5 2.86  36 2.87  16 2.88  27 2.90  46 2.95  12 3.03   9 3.14

[...]

  25  0.779  0.644  0.571-  19 2.77  43 2.78   8 2.82  15 2.82  27 2.83  45 2.83   9 2.98  44 3.10
                            18 3.20
  26  0.456  0.687  0.593-  14 2.87  22 2.87  35 2.93  33 2.93  38 2.95   4 2.97  12 2.98  13 3.03
                            42 3.03
  27  0.770  0.763  0.559-  43 2.80   5 2.82  46 2.83  25 2.83   9 2.90  23 2.90  15 2.99
  28  0.513  0.513  0.649-  48 2.76  42 2.77  30 2.78  41 2.78  20 2.84  32 2.87  40 2.91  17 2.91
                            34 3.01  39 3.03  22 3.04  35 3.08
  29  0.668  0.402  0.648-  20 2.71  52 2.80  11 2.87  39 2.95  31 2.96  34 3.04  10 3.10  40 3.56

[...]

  35  0.457  0.621  0.699-  33 2.73  47 2.76  32 2.78  42 2.82  38 2.92  26 2.93  48 2.97  28 3.08
                            22 3.16
  36  0.603  0.820  0.671-  37 2.80  51 2.82  12 2.82  23 2.87  46 2.90  38 2.92
  37  0.625  0.717  0.617-  44 2.75  42 2.78  23 2.79   9 2.80  36 2.80  12 2.81  14 2.84  46 2.85
                            38 2.91  51 2.92  18 3.18
  38  0.525  0.725  0.690-  49 2.89  42 2.89  37 2.91  51 2.92  36 2.92  35 2.92  26 2.95  47 2.96
                            12 2.99
  39  0.577  0.434  0.729-  52 2.81  40 2.84  41 2.84  34 2.91  48 2.92  29 2.95  28 3.03  53 3.06
                            20 3.60
  40  0.625  0.540  0.695-  53 2.76  31 2.79  20 2.79  42 2.82  44 2.84  39 2.84  47 2.89  28 2.91
                            52 2.91  54 2.93  18 3.34  48 3.47  29 3.56
  41  0.460  0.420  0.701-  28 2.78  32 2.82  39 2.84  34 2.85  30 2.89  48 2.94
  42  0.559  0.620  0.635-  28 2.77  37 2.78  18 2.78  35 2.82  40 2.82  14 2.83  47 2.87  17 2.89
                            38 2.89  26 3.03  44 3.26  20 3.58
  43  0.818  0.715  0.656-  46 2.77  25 2.78  45 2.79  27 2.80  50 2.86  44 3.51
  44  0.692  0.637  0.670-  50 2.73  37 2.75  18 2.80  40 2.84  54 2.84  45 2.85  51 2.99  25 3.10
                            31 3.12  42 3.26  46 3.35  43 3.51
  45  0.807  0.599  0.679-  43 2.79  31 2.79  25 2.83  44 2.85  54 2.86  19 2.97  50 3.04
  46  0.718  0.777  0.666-  43 2.77  51 2.78  27 2.83  37 2.85  36 2.90  23 2.95  50 3.04  44 3.35

[...]

  49  0.548  0.725  0.811-  47 2.72  51 2.73  38 2.89  55 3.16
  50  0.752  0.689  0.755-  44 2.73  51 2.83  43 2.86  54 2.92  55 2.93  45 3.04  46 3.04
  51  0.639  0.729  0.740-  49 2.73  55 2.76  46 2.78  36 2.82  50 2.83  38 2.92  37 2.92  44 2.99
                            47 3.13
  52  0.693  0.454  0.753-  29 2.80  54 2.80  39 2.81  31 2.88  53 2.90  40 2.91
  53  0.613  0.528  0.811-  40 2.76  47 2.88  52 2.90  55 2.94  48 2.95  54 3.00  39 3.06
  54  0.725  0.568  0.764-  55 2.79  52 2.80  44 2.84  45 2.86  50 2.92  40 2.93  31 2.95  53 3.00

  55  0.655  0.645  0.821-  47 2.76  51 2.76  54 2.79  50 2.93  53 2.94  49 3.16

  LATTYP: Found a simple cubic cell.
 ALAT       =    23.4894247961

  Lattice vectors:

 A1 = (  23.4894247961,   0.0000000000,   0.0000000000)
 A2 = (   0.0000000000,  23.4894247961,   0.0000000000)
 A3 = (   0.0000000000,   0.0000000000,  23.4894247961)

Analysis of symmetry for initial positions (statically):
 Subroutine PRICEL returns:
 Original cell was already a primitive cell.

 Routine SETGRP: Setting up the symmetry group for a
 simple cubic supercell.

 Subroutine GETGRP returns: Found  1 space group operations
 (whereof  1 operations were pure point group operations)
 out of a pool of 48 trial point group operations.

The static configuration has the point symmetry C_1 .

Analysis of symmetry for dynamics (positions and initial velocities):
 Subroutine PRICEL returns:
 Original cell was already a primitive cell.

 Routine SETGRP: Setting up the symmetry group for a
 simple cubic supercell.

 Subroutine GETGRP returns: Found  1 space group operations
 (whereof  1 operations were pure point group operations)
 out of a pool of 48 trial point group operations.

The dynamic configuration has the point symmetry C_1 .

Analysis of magnetic symmetry:
 Subroutine PRICEL returns:
 Original cell was already a primitive cell.

 Subroutine MAGSYM returns: Found  1 space group operations
 (whereof  1 operations were pure point group operations)
 out of a pool of  1 trial space group operations
 (whereof  1 operations were pure point group operations)
 and found also     1 'primitive' translations

The magnetic configuration has the point symmetry C_1 .

 KPOINTS: Gamma-point only
  k-points in reciprocal lattice
Space group operators:
 irot       det(A)        alpha          n_x          n_y          n_z        tau_x        tau_y        tau_z
    1     1.000000     0.000000     1.000000     0.000000     0.000000     0.000000     0.000000     0.000000

 I would recommend the setting:
   dimension x,y,z NGX =    91 NGY =   91 NGZ =   91
 SYSTEM =  unknown system
 POSCAR =  Si55, -264.26630595 <s> Ag </s>

 Startparameter for this run:
   NWRITE =      2    write-flag & timer
   PREC   = normal    normal or accurate (medium, high low for compatibility)
   ISTART =      0    job   : 0-new  1-cont  2-samecut
   ICHARG =      2    charge: 1-file 2-atom 10-const
   ISPIN  =      2    spin polarized calculation?
   LNONCOLLINEAR =      F non collinear calculations
   LSORBIT =      F    spin-orbit coupling
   INIWAV =      1    electr: 0-lowe 1-rand  2-diag
   LASPH  =      F    aspherical Exc in radial PAW
   METAGGA=      F    non-selfconsistent MetaGGA calc.

 Electronic Relaxation 1
   ENCUT  =  249.8 eV  18.36 Ry    4.29 a.u.  30.27 30.27 30.27*2*pi/ulx,y,z
   ENINI  =  249.8     initial cutoff
   ENAUG  =  412.5 eV  augmentation charge cutoff
   NELM   =     60;   NELMIN=  2; NELMDL=  0     # of ELM steps
   EDIFF  = 0.1E-03   stopping-criterion for ELM
   LREAL  =      F    real-space projection
   NLSPLINE    = F    spline interpolate recip. space projectors
   LCOMPAT=      F    compatible to vasp.4.4
   GGA_COMPAT  = T    GGA compatible to vasp.4.4-vasp.4.6
   LMAXPAW     = -100 max onsite density
   LMAXMIX     =    2 max onsite mixed and CHGCAR
   VOSKOWN=      0    Vosko Wilk Nusair interpolation
   ROPT   =    0.00000
 Ionic relaxation
   EDIFFG = 0.1E-02   stopping-criterion for IOM
   NSW    =   1000    number of steps for IOM
   NBLOCK =      1;   KBLOCK =   1000    inner block; outer block
   IBRION =      2    ionic relax: 0-MD 1-quasi-New 2-CG
   NFREE  =      1    steps in history (QN), initial steepest desc. (CG)
   ISIF   =      2    stress and relaxation
   IWAVPR =     11    prediction:  0-non 1-charg 2-wave 3-comb
   ISYM   =      2    0-nonsym 1-usesym 2-fastsym
   LCORR  =      T    Harris-Foulkes like correction to forces

   POTIM  = 0.1000    time-step for ionic-motion
   TEIN   =    0.0    initial temperature
   TEBEG  =    0.0;   TEEND  =   0.0 temperature during run
   SMASS  =  -3.00    Nose mass-parameter (am)
   estimated Nose-frequenzy (Omega)   =  0.10E-29 period in steps =****** mass=  -0.126E-25a.u.
   SCALEE = 1.0000    scale energy and forces
   NPACO  =    256;   APACO  = 16.0  distance and # of slots for P.C.
   PSTRESS=    0.0 pullay stress

  Mass of Ions in am
   POMASS = 107.87
  Ionic Valenz
   ZVAL   =  11.00
  Atomic Wigner-Seitz radii
  virtual crystal weights
   VCA    =   1.00
   NELECT =     605.0000    total number of electrons
   NUPDOWN=      -1.0000    fix difference up-down

 DOS related values:
   EMIN   =  10.00;   EMAX   =-10.00  energy-range for DOS
   EFERMI =   0.00
   ISMEAR =     0;   SIGMA  =   0.00  broadening in eV -4-tet -1-fermi 0-gaus

 Electronic relaxation 2 (details)
   IALGO  =     38    algorithm
   LDIAG  =      T    sub-space diagonalisation (order eigenvalues)
   LSUBROT=      F    optimize rotation matrix (better conditioning)
   TURBO    =      0    0=normal 1=particle mesh
   IRESTART =      0    0=no restart 2=restart with 2 vectors
   NREBOOT  =      0    no. of reboots
   NMIN     =      0    reboot dimension
   EREF     =   0.00    reference energy to select bands
   IMIX   =      4    mixing-type and parameters
     AMIX     =   0.40;   BMIX     =  1.00
     AMIX_MAG =   1.60;   BMIX_MAG =  1.00
     AMIN     =   0.10
     WC   =   100.;   INIMIX=   1;  MIXPRE=   1;  MAXMIX= -45

 Intra band minimization:
   WEIMIN = 0.0010     energy-eigenvalue tresh-hold
   EBREAK =  0.64E-07  absolut break condition
[...]
      9      -8.9169      1.00000
     10      -8.8907      1.00000
     11      -8.8796      1.00000
     12      -8.8597      1.00000
     13      -8.8268      1.00000
     14      -8.8185      1.00000
     15      -8.7837      1.00000
     16      -8.7576      1.00000
     17      -8.7507      1.00000
     18      -8.7346      1.00000
     19      -8.7208      1.00000
     20      -8.7050      1.00000
     21      -8.6736      1.00000
     22      -8.6601      1.00000
     23      -8.6394      1.00000
     24      -8.6126      1.00000
     25      -8.6045      1.00000
     26      -8.5812      1.00000
     27      -8.5772      1.00000
     28      -8.5506      1.00000
     29      -8.5279      1.00000
     30      -8.5219      1.00000
     31      -8.5140      1.00000
     32      -8.5102      1.00000
     33      -8.4938      1.00000
     34      -8.4762      1.00000
     35      -8.4657      1.00000
     36      -8.4485      1.00000
     37      -8.4350      1.00000
     38      -8.4172      1.00000
     39      -8.4116      1.00000
     40      -8.3943      1.00000
     41      -8.3780      1.00000
     42      -8.3645      1.00000
     43      -8.3553      1.00000
     44      -8.3464      1.00000
     45      -8.3382      1.00000
     46      -8.3018      1.00000
     47      -8.2956      1.00000
     48      -8.2867      1.00000
     49      -8.2709      1.00000
     50      -8.2604      1.00000
     51      -8.2423      1.00000
     52      -8.2278      1.00000
     53      -8.1912      1.00000
     54      -8.1885      1.00000
     55      -8.1781      1.00000
     56      -8.1640      1.00000
     57      -8.1518      1.00000
     58      -8.1441      1.00000
     59      -8.1361      1.00000
     60      -8.1159      1.00000
[...]
    378       1.4808      0.00000
    379       1.4921      0.00000
    380       1.5016      0.00000
    381       1.5390      0.00000
    382       1.5440      0.00000
    383       1.5542      0.00000
    384       1.5692      0.00000
    385       1.5814      0.00000
    386       1.5892      0.00000
    387       1.6394      0.00000
    388       1.6835      0.00000
    389       1.6875      0.00000
    390       1.7091      0.00000
    391       1.7595      0.00000
    392       1.7856      0.00000

 soft charge-density along one line, spin component           1
         0         1         2         3         4         5         6         7         8         9
 total charge-density along one line

 soft charge-density along one line, spin component           2
         0         1         2         3         4         5         6         7         8         9
 total charge-density along one line

------------------------ aborting loop because EDIFF is reached ----------------------------------------

  FORCE on cell =-STRESS in cart. coord.  units (eV):
  Direction    XX          YY          ZZ          XY          YZ          ZX
  Alpha Z   198.52830   198.52830   198.52830
  Ewald   58083.72500 62180.90085 53204.25742  8997.21163 -5671.81006  1329.28878
  Hartree 76380.02287 80335.22217 71637.51170  8495.57268 -5299.66222  1239.83963
  E(xc)   -3190.21833 -3190.20716 -3190.29770     0.54169    -0.53023     0.11969
  Local  ************************************-17490.18660 10967.22952 -2567.30522
  n-local  -564.14249  -564.50801  -565.79896     1.29826    -0.55899    -0.14393
  augment  5056.05602  5054.91214  5054.41136    -1.34022     1.38143    -0.42672
  Kinetic  7529.45555  7526.49390  7525.12403    -3.12048     3.62217    -1.61155
  Fock        0.00000     0.00000     0.00000     0.00000     0.00000     0.00000
  Total     -20.36681   -20.25855   -20.13746    -0.02304    -0.32837    -0.23932
  in kB      -2.51777    -2.50439    -2.48942    -0.00285    -0.04059    -0.02959

 VOLUME and BASIS-vectors are now :
  energy-cutoff  :      249.84
  volume of cell :    12960.36
      direct lattice vectors                 reciprocal lattice vectors
    23.489424796  0.000000000  0.000000000     0.042572349  0.000000000  0.000000000
     0.000000000 23.489424796  0.000000000     0.000000000  0.042572349  0.000000000
     0.000000000  0.000000000 23.489424796     0.000000000  0.000000000  0.042572349

  length of vectors
    23.489424796 23.489424796 23.489424796     0.042572349  0.042572349  0.042572349

 FORCES acting on ions
    electron-ion (+dipol)            ewald-force                    non-local-force                 convergence-correction
   0.489E+03 0.558E+03 0.176E+04   -.488E+03 -.557E+03 -.176E+04   -.819E+00 -.112E+01 -.359E+01   -.367E-04 -.140E-03 0.119E-03
   -.340E+03 0.226E+03 0.160E+04   0.340E+03 -.226E+03 -.160E+04   -.199E+00 -.145E+00 -.735E+00   -.317E-04 -.170E-03 -.168E-03
   -.376E+03 -.524E+03 0.176E+04   0.374E+03 0.524E+03 -.175E+04   0.163E+01 -.302E+00 -.431E+01   -.535E-04 -.312E-03 0.176E-03
   0.126E+04 -.118E+04 0.915E+03   -.125E+04 0.118E+04 -.913E+03   -.399E+01 0.302E+01 -.152E+01   -.183E-03 0.164E-03 0.178E-03
   -.750E+03 -.135E+04 0.109E+04   0.748E+03 0.135E+04 -.108E+04   0.211E+01 0.391E+01 -.235E+01   -.903E-04 0.580E-04 -.281E-03
   0.596E+03 -.434E+03 0.174E+04   -.594E+03 0.433E+03 -.174E+04   -.205E+01 0.135E+01 -.296E+01   -.334E-03 0.214E-03 0.105E-03
   -.427E+03 0.101E+04 0.147E+04   0.427E+03 -.101E+04 -.147E+04   0.206E+00 -.112E+01 -.229E+01   -.146E-04 0.939E-05 -.286E-03
   -.121E+04 0.516E+03 0.125E+04   0.121E+04 -.515E+03 -.125E+04   0.229E+01 -.732E+00 -.182E+01   0.722E-04 -.255E-03 0.148E-03
   -.587E+03 -.582E+03 0.752E+03   0.587E+03 0.581E+03 -.751E+03   0.536E+00 0.160E+01 -.475E+00   -.118E-03 -.140E-03 -.108E-03
   -.119E+04 0.127E+04 0.662E+03   0.119E+04 -.127E+04 -.660E+03   0.157E+01 -.198E+01 -.129E+01   -.383E-04 0.137E-03 -.264E-03
   -.361E+03 0.174E+04 0.749E+03   0.361E+03 -.173E+04 -.746E+03   0.926E+00 -.474E+01 -.239E+01   0.193E-03 0.211E-03 -.389E-04
   0.889E+03 -.163E+04 0.920E+02   -.887E+03 0.163E+04 -.917E+02   -.172E+01 0.186E+01 -.282E+00   -.815E-04 -.219E-03 -.269E-03
   0.144E+04 -.264E+03 0.114E+04   -.144E+04 0.263E+03 -.114E+04   -.179E+01 0.442E+00 -.233E+01   0.151E-03 -.729E-04 -.150E-03
   0.488E+03 -.547E+03 0.670E+03   -.487E+03 0.546E+03 -.668E+03   -.487E+00 0.817E+00 -.122E+01   -.138E-03 -.290E-03 0.298E-05
   -.141E+04 -.297E+03 0.123E+04   0.141E+04 0.297E+03 -.122E+04   0.342E+01 -.288E+00 -.432E+01   -.694E-04 -.199E-03 -.135E-03
   0.309E+03 -.144E+04 0.110E+04   -.309E+03 0.144E+04 -.110E+04   -.351E+00 0.165E+01 -.191E+01   -.163E-03 -.153E-03 -.759E-04
   0.572E+03 0.395E+03 0.692E+03   -.571E+03 -.394E+03 -.691E+03   -.814E+00 -.599E+00 -.135E+01   0.697E-04 0.299E-03 0.650E-04
   -.502E+03 0.195E+03 0.380E+03   0.502E+03 -.194E+03 -.379E+03   0.413E+00 -.894E+00 -.198E+00   -.217E-03 -.227E-03 -.314E-04
   -.172E+04 0.697E+03 0.330E+03   0.171E+04 -.696E+03 -.329E+03   0.492E+01 -.135E+01 -.483E+00   -.125E-03 -.243E-03 0.984E-04
   -.192E+03 0.978E+03 0.201E+03   0.192E+03 -.977E+03 -.200E+03   0.152E+00 -.132E+01 -.529E+00   0.123E-03 0.161E-03 -.154E-03
   0.139E+04 0.723E+03 0.115E+04   -.139E+04 -.721E+03 -.114E+04   -.318E+01 -.174E+01 -.316E+01   0.322E-04 -.242E-04 -.732E-04
   0.162E+04 0.139E+03 0.314E+03   -.162E+04 -.139E+03 -.314E+03   -.184E+00 -.232E-02 0.669E+00   0.116E-03 0.230E-03 -.185E-03
   -.296E+03 -.180E+04 0.248E+03   0.296E+03 0.179E+04 -.248E+03   -.134E+00 0.303E+01 -.370E+00   -.176E-03 -.155E-03 0.860E-04
   0.556E+03 0.142E+04 0.109E+04   -.555E+03 -.142E+04 -.109E+04   -.980E+00 -.197E+01 -.160E+01   -.677E-04 0.247E-03 -.106E-04
   -.151E+04 -.150E+03 0.332E+03   0.151E+04 0.150E+03 -.333E+03   -.103E+01 -.154E+00 0.527E+00   -.376E-03 -.157E-03 -.193E-03
   0.144E+04 -.934E+03 0.266E+02   -.144E+04 0.933E+03 -.260E+02   -.759E+00 0.796E+00 -.638E+00   -.147E-03 -.880E-05 -.775E-04
   -.135E+04 -.119E+04 0.294E+03   0.135E+04 0.119E+04 -.293E+03   0.182E+01 0.157E+01 -.117E+01   -.170E-03 0.213E-04 0.612E-04
   0.736E+03 0.665E+03 -.371E+03   -.735E+03 -.664E+03 0.370E+03   -.690E+00 -.120E+01 0.760E+00   -.690E-04 0.175E-03 -.613E-04
   -.727E+03 0.171E+04 -.349E+03   0.725E+03 -.170E+04 0.349E+03   0.159E+01 -.336E+01 0.784E+00   0.102E-03 0.325E-04 0.469E-04
   0.138E+04 0.124E+04 0.301E+03   -.137E+04 -.124E+04 -.301E+03   -.244E+01 -.203E+01 -.560E+00   0.117E-03 -.212E-04 -.155E-03
   -.126E+04 0.914E+03 -.363E+03   0.125E+04 -.914E+03 0.364E+03   0.286E+00 -.151E+00 -.395E+00   0.372E-04 -.118E-03 -.101E-03
   0.167E+04 0.515E+03 -.709E+03   -.166E+04 -.514E+03 0.708E+03   -.381E+01 -.909E+00 0.155E+01   0.240E-04 0.173E-03 0.137E-03
   0.171E+04 -.477E+03 -.305E+03   -.170E+04 0.475E+03 0.304E+03   -.611E+01 0.250E+01 0.873E+00   0.163E-03 0.199E-03 0.626E-04
   0.425E+03 0.180E+04 -.403E+02   -.425E+03 -.179E+04 0.404E+02   -.128E+00 -.278E+01 -.155E+00   0.449E-04 0.102E-03 -.144E-03
   0.132E+04 -.406E+03 -.102E+04   -.132E+04 0.405E+03 0.102E+04   -.194E+01 0.609E+00 0.814E+00   -.110E-03 0.415E-03 -.121E-03
   0.230E+03 -.180E+04 -.676E+03   -.229E+03 0.179E+04 0.673E+03   -.775E+00 0.461E+01 0.261E+01   -.330E-03 -.210E-03 0.244E-03
   -.101E+03 -.916E+03 -.164E+03   0.101E+03 0.915E+03 0.164E+03   0.204E+00 0.153E+01 -.269E+00   -.192E-03 -.108E-03 0.471E-04
   0.100E+04 -.119E+04 -.824E+03   -.100E+04 0.119E+04 0.823E+03   -.158E+01 0.173E+01 0.814E+00   -.295E-03 0.396E-05 0.138E-03
   0.152E+03 0.145E+04 -.113E+04   -.152E+03 -.145E+04 0.113E+04   -.204E-01 -.153E+01 0.136E+01   -.406E-04 0.470E-05 -.901E-05
   -.203E+03 0.509E+03 -.783E+03   0.203E+03 -.508E+03 0.782E+03   0.950E-01 -.883E+00 0.129E+01   0.366E-04 0.277E-04 -.452E-04
   0.106E+04 0.139E+04 -.810E+03   -.105E+04 -.138E+04 0.808E+03   -.260E+01 -.359E+01 0.249E+01   -.210E-04 0.525E-04 -.445E-04
   0.457E+03 -.209E+03 -.306E+03   -.457E+03 0.209E+03 0.307E+03   0.328E+00 -.321E+00 -.156E+00   -.242E-03 0.258E-04 -.888E-04
   -.164E+04 -.761E+03 -.419E+03   0.164E+04 0.759E+03 0.417E+03   0.399E+01 0.164E+01 0.179E+01   -.220E-03 -.101E-03 0.254E-03
   -.726E+03 -.238E+03 -.540E+03   0.724E+03 0.238E+03 0.539E+03   0.129E+01 0.825E+00 0.594E+00   -.202E-03 -.663E-04 0.528E-04
   -.173E+04 0.237E+03 -.642E+03   0.173E+04 -.235E+03 0.641E+03   0.372E+01 -.117E+01 0.134E+01   0.143E-04 -.230E-03 -.177E-03
   -.888E+03 -.146E+04 -.633E+03   0.886E+03 0.145E+04 0.632E+03   0.148E+01 0.181E+01 0.873E+00   -.154E-04 -.112E-03 -.205E-04
   0.535E+03 -.222E+03 -.142E+04   -.537E+03 0.222E+03 0.142E+04   0.145E+01 -.711E-01 0.448E+00   0.546E-04 0.673E-05 -.152E-03
   0.930E+03 0.511E+03 -.156E+04   -.929E+03 -.511E+03 0.156E+04   -.136E+01 -.418E+00 0.284E+01   0.118E-03 0.328E-04 -.308E-04
   0.622E+03 -.916E+03 -.150E+04   -.619E+03 0.913E+03 0.149E+04   -.290E+01 0.297E+01 0.519E+01   0.278E-04 0.947E-04 0.342E-04
   -.118E+04 -.677E+03 -.132E+04   0.118E+04 0.676E+03 0.132E+04   0.321E+01 0.135E+01 0.248E+01   0.298E-04 -.102E-03 0.196E-03
   -.212E+03 -.112E+04 -.124E+04   0.213E+03 0.112E+04 0.124E+04   -.639E+00 -.123E+00 0.750E+00   -.281E-03 -.635E-05 0.419E-04
   -.874E+03 0.125E+04 -.120E+04   0.872E+03 -.125E+04 0.120E+04   0.249E+01 -.246E+01 0.263E+01   0.445E-04 0.359E-04 -.323E-04
   -.152E+02 0.596E+03 -.180E+04   0.153E+02 -.594E+03 0.180E+04   -.123E+00 -.154E+01 0.392E+01   0.232E-05 -.219E-03 -.672E-04
   -.112E+04 0.387E+03 -.141E+04   0.112E+04 -.386E+03 0.141E+04   0.986E+00 -.452E+00 0.279E+01   -.118E-03 0.107E-03 0.269E-03
   -.361E+03 -.319E+03 -.180E+04   0.360E+03 0.318E+03 0.180E+04   0.543E+00 0.854E+00 0.393E+01   0.215E-04 0.256E-03 -.189E-04
   0.198E+01 0.951E+00 0.697E+00   0.796E-12 -.233E-11 -.364E-11   -.194E+01 -.951E+00 -.700E+00   -.317E-02 -.559E-03 -.121E-02

 POSITION                                       TOTAL-FORCE (eV/Angst)
     12.50188     12.79203      9.79180        -0.000499      0.016766      0.004472
     14.85489     14.20656     10.43926         0.004993      0.005058     -0.000188
     15.46827     16.64927      9.24627         0.017498     -0.000064      0.009081
     11.14033     17.50610     11.33467        -0.001598      0.003102      0.000010
     16.76156     18.62602     10.72930        -0.003494      0.005481      0.008083
     12.73739     15.78080      9.57527         0.005431      0.008745     -0.000826
     14.90747     11.53969     11.06275        -0.001723      0.002874      0.005055
     17.33228     13.33783     11.44658         0.005434     -0.002050     -0.003632
     15.93084     16.32208     12.04208         0.006508      0.009963      0.005834
     17.04277     10.82174     12.79908        -0.005821     -0.000521      0.003587
     14.86504      9.01259     12.51604        -0.000081      0.005827      0.006359
     12.55876     18.44633     13.60145        -0.001989      0.004372      0.000353
     10.63562     14.73367     11.23886         0.004824     -0.000207      0.000257
     13.09702     15.80212     12.36821        -0.002711     -0.000536     -0.000468
     18.29118     16.10228     10.76333        -0.038167     -0.003587     -0.020084
     13.89394     18.20394     11.03550        -0.000729      0.007846     -0.002158
     12.53479     13.01482     12.54960        -0.008550      0.002543     -0.001205
     15.30789     13.94956     13.30214         0.001627     -0.003315     -0.006387
     19.21696     12.50488     13.45135         0.000468     -0.004047      0.000299
     14.42381     11.40527     13.84368         0.006465     -0.020597      0.003758
     10.21283     11.93039     11.24369         0.002207     -0.000379      0.000185
      9.87830     13.40455     13.60780         0.000719     -0.002652      0.000827
     15.47547     19.19072     13.22586        -0.001028      0.004068      0.002411
     12.44660     10.29661     11.77236         0.002979     -0.001472      0.003522
     18.29011     15.11743     13.40674         0.027298      0.004004     -0.023553
     10.71563     16.12875     13.92820         0.001171     -0.003779      0.000485
     18.08870     17.92945     13.11910         0.001573      0.000807     -0.003743
     12.04603     12.04411     15.25180        -0.004173     -0.005658      0.006291
     15.69706      9.44828     15.22537        -0.005004      0.007431      0.000233
     10.29114     10.53952     13.70781        -0.000096      0.001017      0.001153
     17.18903     12.00655     15.31291         0.006840     -0.015750      0.010368
      9.30323     12.22782     16.08312         0.000454      0.002316      0.004204
      8.33502     14.97735     15.18379         0.004606     -0.001845      0.006525
     12.75743      9.22386     14.48588         0.001933     -0.002022      0.001684
     10.74275     14.58316     16.41296        -0.000282     -0.000073     -0.003222
     14.15917     19.26747     15.77117        -0.001576     -0.002154      0.005789
     14.67920     16.83106     14.49339        -0.007345      0.005698      0.009961
     12.34064     17.02381     16.21790        -0.001676      0.000211     -0.001951
     13.55738     10.18572     17.11364        -0.005418     -0.001930      0.003634
     14.67464     12.67419     16.32018         0.004921     -0.005279      0.005071
     10.80663      9.86978     16.46644        -0.003642      0.001182     -0.001246
     13.12582     14.56853     14.91082         0.008829      0.000272     -0.001164
     19.22391     16.79623     15.41768        -0.000187     -0.002223     -0.004255
     16.25550     14.95488     15.73340         0.002725     -0.005750     -0.012487
     18.95276     14.07630     15.95846        -0.001853     -0.002309     -0.012845
     16.86807     18.24441     15.64796        -0.000702     -0.000832     -0.002732
     13.13944     14.64517     17.78023         0.002596      0.001354      0.003221
     11.66537     12.23764     17.98327        -0.005229      0.000726      0.000216
     12.86270     17.02874     19.05963        -0.005470      0.004051     -0.008777
     17.65866     16.17735     17.73487        -0.001213     -0.007172     -0.007719
     15.01115     17.11917     17.38325        -0.000140     -0.006365      0.000057
     16.27111     10.65485     17.68165        -0.005813     -0.003024      0.012542
     14.40751     12.39747     19.05080        -0.004627      0.002983     -0.000599
     17.02526     13.33871     17.93515        -0.001759     -0.000697     -0.006083
     15.39447     15.15376     19.28689         0.000493     -0.002406     -0.000204
    total drift:                                0.042718     -0.001050     -0.004051

  FREE ENERGIE OF THE ION-ELECTRON SYSTEM (eV)
  free  energy   TOTEN  =      -121.79228431 eV

  energy  without entropy=     -121.79228431  energy(sigma->0) =     -121.79228431

 reached required accuracy - stopping structural energy minimisation