 vasp.5.3.5 31Mar14 (build Feb 01 2018 12:10:03) gamma-only

 executed on             LinuxIFC date 2019.03.24  04:34:49

 INCAR:
 POTCAR:    PAW_PBE Ag 02Apr2005
 POTCAR:    PAW_PBE Ag 02Apr2005
   VRHFIN =Ag : s1 d10

   TITEL  = PAW_PBE Ag 02Apr2005
   POMASS =  107.868; ZVAL   =   11.000    mass and valenz
   ENMAX  =  249.844; ENMIN  =  187.383 eV

  PAW_PBE Ag 02Apr2005                  :

 POSCAR: Pt47, -240.09295653 <s> Ag </s>
  positions in direct lattice
 exchange correlation table for  LEXCH =        8
   RHO(1)=    0.500       N(1)  =     2000
   RHO(2)=  100.500       N(2)  =     4000

 ion  position               nearest neighbor table
   1  0.701  0.636  0.539-  34 2.73  29 2.75   3 2.77  13 2.77   4 2.85  10 2.85
   2  0.609  0.580  0.349-  36 2.76  43 2.77  11 2.77   5 2.83  34 2.86   3 2.89  31 2.92   8 3.29

   3  0.701  0.561  0.439-  36 2.76  43 2.76   1 2.77  10 2.83  34 2.86   2 2.89  15 2.91  29 3.29

   4  0.647  0.615  0.654-  29 2.68  32 2.75  30 2.75  35 2.77  13 2.83   1 2.85
   5  0.486  0.558  0.323-   8 2.68  31 2.75  45 2.76  25 2.77   2 2.83  11 2.85  47 3.60
   6  0.509  0.513  0.619-  18 2.67  40 2.70  30 2.71  22 2.72  38 2.73  29 2.78  24 2.93  21 3.03
                            44 3.03   9 3.04  32 3.42
   7  0.487  0.748  0.602-  42 2.73  27 2.76  13 2.77  19 2.79  32 2.80  40 3.07
   8  0.493  0.577  0.443-  47 2.68   5 2.68  43 2.70  40 2.70  11 2.76  18 2.78  39 2.79  34 3.27
                            27 3.29  25 3.29   2 3.29
   9  0.474  0.381  0.632-  21 2.76  24 2.77  17 2.77  37 2.77  33 2.77  44 2.83   6 3.04  22 3.07

[...]

  18  0.423  0.532  0.537-   6 2.67  12 2.70  40 2.71  39 2.72  14 2.73   8 2.78  28 2.93  26 3.03
                            21 3.04  37 3.07  19 3.35
  19  0.397  0.681  0.545-  47 2.75  42 2.77   7 2.79  40 2.82  14 2.86  12 2.89  27 2.92  18 3.35

[...]

  33  0.579  0.318  0.604-  41 2.73   9 2.77  44 2.78  17 2.81  16 2.84  22 2.92
  34  0.617  0.658  0.451-   1 2.73  11 2.73   2 2.86  13 2.86   3 2.86  27 2.86   8 3.27  29 3.28
                            43 3.46  40 3.46
  35  0.684  0.496  0.671-  44 2.75  10 2.76   4 2.77  30 2.83  16 2.84  29 3.26
  36  0.684  0.480  0.346-  23 2.73   3 2.76   2 2.76  15 2.80  31 2.80  43 3.08
  37  0.385  0.399  0.546-  17 2.77  20 2.77  21 2.77   9 2.77  28 2.77  26 2.83  39 3.04  18 3.07

  38  0.443  0.568  0.708-  42 2.72  24 2.72   6 2.73  32 2.85  21 2.89  14 2.92  30 2.96
  39  0.481  0.453  0.463-  22 2.67  43 2.71  45 2.71  18 2.72  46 2.73   8 2.79  20 2.94  26 3.03
                            17 3.04  37 3.04  31 3.40
  40  0.507  0.619  0.557-  29 2.70   8 2.70   6 2.70  18 2.71  13 2.76  27 2.77  32 2.81  19 2.82
                             7 3.07  34 3.46  42 3.57
  41  0.611  0.336  0.487-  23 2.72  22 2.72  33 2.73  15 2.87  17 2.88  46 2.92  16 3.01
  42  0.410  0.680  0.669-  38 2.72  14 2.72   7 2.73  32 2.76  19 2.77  40 3.57
  43  0.591  0.503  0.446-   8 2.70  22 2.70  29 2.71  39 2.71   3 2.76   2 2.77  31 2.82  15 2.82
                            36 3.08  34 3.46  23 3.56
  44  0.587  0.418  0.679-  35 2.75  24 2.78  33 2.78   9 2.83  30 2.85  16 2.86  22 3.03   6 3.03

  45  0.432  0.449  0.351-  39 2.71   5 2.76  25 2.83  20 2.84  26 2.85  31 2.88  46 2.97
  46  0.517  0.355  0.396-  23 2.72  20 2.73  39 2.73  31 2.85  17 2.89  41 2.92  45 2.97
  47  0.409  0.662  0.423-   8 2.68  19 2.75  12 2.76  25 2.76  27 2.83  11 2.85   5 3.60

  LATTYP: Found a simple cubic cell.
 ALAT       =    22.1140704924

  Lattice vectors:

 A1 = (  22.1140704924,   0.0000000000,   0.0000000000)
 A2 = (   0.0000000000,  22.1140704924,   0.0000000000)
 A3 = (   0.0000000000,   0.0000000000,  22.1140704924)

Analysis of symmetry for initial positions (statically):
 Subroutine PRICEL returns:
 Original cell was already a primitive cell.

 Routine SETGRP: Setting up the symmetry group for a
 simple cubic supercell.

 Subroutine GETGRP returns: Found  1 space group operations
 (whereof  1 operations were pure point group operations)
 out of a pool of 48 trial point group operations.

The static configuration has the point symmetry C_1 .

Analysis of symmetry for dynamics (positions and initial velocities):
 Subroutine PRICEL returns:
 Original cell was already a primitive cell.

 Routine SETGRP: Setting up the symmetry group for a
 simple cubic supercell.

 Subroutine GETGRP returns: Found  1 space group operations
 (whereof  1 operations were pure point group operations)
 out of a pool of 48 trial point group operations.

The dynamic configuration has the point symmetry C_1 .

Analysis of magnetic symmetry:
 Subroutine PRICEL returns:
 Original cell was already a primitive cell.

 Subroutine MAGSYM returns: Found  1 space group operations
 (whereof  1 operations were pure point group operations)
 out of a pool of  1 trial space group operations
 (whereof  1 operations were pure point group operations)
 and found also     1 'primitive' translations

The magnetic configuration has the point symmetry C_1 .

 KPOINTS: Gamma-point only
  k-points in reciprocal lattice
Space group operators:
 irot       det(A)        alpha          n_x          n_y          n_z        tau_x        tau_y        tau_z
    1     1.000000     0.000000     1.000000     0.000000     0.000000     0.000000     0.000000     0.000000

 I would recommend the setting:
   dimension x,y,z NGX =    86 NGY =   86 NGZ =   86
 SYSTEM =  unknown system
 POSCAR =  Pt47, -240.09295653 <s> Ag </s>

 Startparameter for this run:
   NWRITE =      2    write-flag & timer
   PREC   = normal    normal or accurate (medium, high low for compatibility)
   ISTART =      0    job   : 0-new  1-cont  2-samecut
   ICHARG =      2    charge: 1-file 2-atom 10-const
   ISPIN  =      2    spin polarized calculation?
   LNONCOLLINEAR =      F non collinear calculations
   LSORBIT =      F    spin-orbit coupling
   INIWAV =      1    electr: 0-lowe 1-rand  2-diag
   LASPH  =      F    aspherical Exc in radial PAW
   METAGGA=      F    non-selfconsistent MetaGGA calc.

 Electronic Relaxation 1
   ENCUT  =  249.8 eV  18.36 Ry    4.29 a.u.  28.50 28.50 28.50*2*pi/ulx,y,z
   ENINI  =  249.8     initial cutoff
   ENAUG  =  412.5 eV  augmentation charge cutoff
   NELM   =     60;   NELMIN=  2; NELMDL= -5     # of ELM steps
   EDIFF  = 0.1E-03   stopping-criterion for ELM
   LREAL  =      F    real-space projection
   NLSPLINE    = F    spline interpolate recip. space projectors
   LCOMPAT=      F    compatible to vasp.4.4
   GGA_COMPAT  = T    GGA compatible to vasp.4.4-vasp.4.6
   LMAXPAW     = -100 max onsite density
   LMAXMIX     =    2 max onsite mixed and CHGCAR
   VOSKOWN=      0    Vosko Wilk Nusair interpolation
   ROPT   =    0.00000
 Ionic relaxation
   EDIFFG = 0.1E-02   stopping-criterion for IOM
   NSW    =   1000    number of steps for IOM
   NBLOCK =      1;   KBLOCK =   1000    inner block; outer block
   IBRION =      2    ionic relax: 0-MD 1-quasi-New 2-CG
   NFREE  =      1    steps in history (QN), initial steepest desc. (CG)
   ISIF   =      2    stress and relaxation
   IWAVPR =     11    prediction:  0-non 1-charg 2-wave 3-comb
   ISYM   =      2    0-nonsym 1-usesym 2-fastsym
   LCORR  =      T    Harris-Foulkes like correction to forces

   POTIM  = 0.1000    time-step for ionic-motion
   TEIN   =    0.0    initial temperature
   TEBEG  =    0.0;   TEEND  =   0.0 temperature during run
   SMASS  =  -3.00    Nose mass-parameter (am)
   estimated Nose-frequenzy (Omega)   =  0.10E-29 period in steps =****** mass=  -0.112E-25a.u.
   SCALEE = 1.0000    scale energy and forces
   NPACO  =    256;   APACO  = 16.0  distance and # of slots for P.C.
   PSTRESS=    0.0 pullay stress

  Mass of Ions in am
   POMASS = 107.87
  Ionic Valenz
   ZVAL   =  11.00
  Atomic Wigner-Seitz radii
  virtual crystal weights
   VCA    =   1.00
   NELECT =     517.0000    total number of electrons
   NUPDOWN=      -1.0000    fix difference up-down

 DOS related values:
   EMIN   =  10.00;   EMAX   =-10.00  energy-range for DOS
   EFERMI =   0.00
   ISMEAR =     0;   SIGMA  =   0.00  broadening in eV -4-tet -1-fermi 0-gaus

 Electronic relaxation 2 (details)
   IALGO  =     38    algorithm
   LDIAG  =      T    sub-space diagonalisation (order eigenvalues)
   LSUBROT=      F    optimize rotation matrix (better conditioning)
   TURBO    =      0    0=normal 1=particle mesh
   IRESTART =      0    0=no restart 2=restart with 2 vectors
   NREBOOT  =      0    no. of reboots
   NMIN     =      0    reboot dimension
   EREF     =   0.00    reference energy to select bands
   IMIX   =      4    mixing-type and parameters
     AMIX     =   0.40;   BMIX     =  1.00
     AMIX_MAG =   1.60;   BMIX_MAG =  1.00
     AMIN     =   0.10
     WC   =   100.;   INIMIX=   1;  MIXPRE=   1;  MAXMIX= -45

 Intra band minimization:
   WEIMIN = 0.0010     energy-eigenvalue tresh-hold
   EBREAK =  0.74E-07  absolut break condition
   DEPER  =   0.30     relativ break condition

   TIME   =   0.40     timestep for ELM

  volume/ion in A,a.u.               =     230.10      1552.76
  Fermi-wavevector in a.u.,A,eV,Ry     =   0.594159  1.122799  4.803202  0.353025
  Thomas-Fermi vector in A             =   1.643635

 Write flags
   LWAVE  =      F    write WAVECAR
   LCHARG =      F    write CHGCAR
   LVTOT  =      F    write LOCPOT, total local potential
   LVHAR  =      F    write LOCPOT, Hartree potential only
   LELF   =      F    write electronic localiz. function (ELF)
   LORBIT =      0    0 simple, 1 ext, 2 COOP (PROOUT)

 Dipole corrections
   LMONO  =      F    monopole corrections only (constant potential shift)
   LDIPOL =      F    correct potential (dipole corrections)
   IDIPOL =      0    1-x, 2-y, 3-z, 4-all directions
   EPSILON=  1.0000000 bulk dielectric constant

 Exchange correlation treatment:
   GGA     =    PE    GGA type
   VOSKOWN=      0    Vosko Wilk Nusair interpolation
   LHFCALC =     F    Hartree Fock is set to
   LHFONE  =     F    Hartree Fock one center treatment
   AEXX    =    0.0000 exact exchange contribution

 Linear response parameters
   LEPSILON=     F    determine dielectric tensor
   LRPA    =     F    only Hartree local field effects (RPA)
   LNABLA  =     F    use nabla operator in PAW spheres
   LVEL    =     F    velocity operator in full k-point grid
   LINTERFAST=   F  fast interpolation
   KINTER  =     0    interpolate to denser k-point grid
   CSHIFT  =0.1000    complex shift for real part using Kramers Kronig
   OMEGAMAX=  -1.0    maximum frequency
   DEG_THRESHOLD= 0.2000000E-02 threshold for treating states as degnerate
   RTIME   =    0.100 relaxation time in fs

 Orbital magnetization related:
   ORBITALMAG=     F  switch on orbital magnetization
   LCHIMAG   =     F  perturbation theory with respect to B field
   DQ        =  0.001000  dq finite difference perturbation B field

 conjugate gradient relaxation of ions
 charge density and potential will be updated during run
 spin polarized calculation
 Variant of blocked Davidson
 Davidson routine will perform the subspace rotation
 perform sub-space diagonalisation
    after iterative eigenvector-optimisation
[...]
  PAW double counting   =     50862.62038766   -48783.83937199
  entropy T*S    EENTRO =         0.00000000
  eigenvalues    EBANDS =     -3688.14210145
  atomic energy  EATOM  =     48748.33561406
  free energy    TOTEN  =      -101.49831974 eV

  energy without entropy =     -101.49831974  energy(sigma->0) =     -101.49831974

 average (electrostatic) potential at core
  the test charge radii are     1.1249
  (the norm of the test charge is              1.0000)
       1 -82.0863       2 -82.1791       3 -82.2486       4 -81.9741       5 -81.9663
       6 -82.2677       7 -82.0482       8 -82.2324       9 -82.3696      10 -81.9901
      11 -82.0881      12 -81.8848      13 -82.1621      14 -81.8794      15 -82.0121
      16 -81.8794      17 -82.1271      18 -82.2549      19 -82.0144      20 -82.1284
      21 -82.1399      22 -82.2553      23 -81.7794      24 -82.1367      25 -81.6771
      26 -82.1383      27 -82.2582      28 -82.0841      29 -82.2030      30 -81.8978
      31 -81.9711      32 -81.9587      33 -82.0782      34 -82.2924      35 -81.6813
      36 -82.0463      37 -82.3676      38 -81.8938      39 -82.2539      40 -82.3773
      41 -81.8743      42 -81.7752      43 -82.3968      44 -82.1431      45 -81.8837
      46 -81.8789      47 -81.9911

 E-fermi :  -3.1657     XC(G=0):  -1.4595     alpha+bet : -0.9976

[...]

 spin component 2

 k-point     1 :       0.0000    0.0000    0.0000
  band No.  band energies     occupation
      1      -9.5688      1.00000
      2      -9.1288      1.00000
      3      -9.0663      1.00000
      4      -9.0211      1.00000
      5      -9.0046      1.00000
      6      -8.9369      1.00000
      7      -8.9078      1.00000
      8      -8.8774      1.00000
      9      -8.8434      1.00000
     10      -8.8387      1.00000
     11      -8.7401      1.00000
     12      -8.7315      1.00000
     13      -8.7079      1.00000
     14      -8.6900      1.00000
     15      -8.6821      1.00000
     16      -8.6746      1.00000
     17      -8.6571      1.00000
     18      -8.6457      1.00000
     19      -8.6300      1.00000
     20      -8.6205      1.00000
     21      -8.6127      1.00000
     22      -8.6006      1.00000
     23      -8.5895      1.00000
     24      -8.5686      1.00000
     25      -8.5558      1.00000
     26      -8.5302      1.00000
     27      -8.5174      1.00000
     28      -8.4758      1.00000
     29      -8.4577      1.00000
     30      -8.4573      1.00000
     31      -8.4465      1.00000
     32      -8.4410      1.00000
     33      -8.4142      1.00000
     34      -8.3946      1.00000
     35      -8.3761      1.00000
     36      -8.3616      1.00000
     37      -8.3539      1.00000
     38      -8.3475      1.00000
     39      -8.3321      1.00000
     40      -8.2985      1.00000
     41      -8.2961      1.00000
     42      -8.2813      1.00000
     43      -8.2767      1.00000
     44      -8.2677      1.00000
     45      -8.2572      1.00000
     46      -8.2495      1.00000
     47      -8.2298      1.00000
     48      -8.2257      1.00000
     49      -8.2178      1.00000
     50      -8.2018      1.00000
     51      -8.1747      1.00000
     52      -8.1541      1.00000
     53      -8.1493      1.00000
     54      -8.1390      1.00000
     55      -8.1233      1.00000
     56      -8.1077      1.00000
     57      -8.1036      1.00000
     58      -8.0927      1.00000
     59      -8.0799      1.00000
     60      -8.0715      1.00000
[...]
    322       1.3272      0.00000
    323       1.3456      0.00000
    324       1.3700      0.00000
    325       1.4010      0.00000
    326       1.4054      0.00000
    327       1.4547      0.00000
    328       1.5123      0.00000
    329       1.5336      0.00000
    330       1.5772      0.00000
    331       1.6019      0.00000
    332       1.6120      0.00000
    333       1.6262      0.00000
    334       1.6573      0.00000
    335       1.6773      0.00000
    336       1.7269      0.00000

[...]

 soft charge-density along one line, spin component           2
         0         1         2         3         4         5         6         7         8         9
 total charge-density along one line

------------------------ aborting loop because EDIFF is reached ----------------------------------------

  FORCE on cell =-STRESS in cart. coord.  units (eV):
  Direction    XX          YY          ZZ          XY          YZ          ZX
  Alpha Z   173.74160   173.74160   173.74160
  Ewald   42955.95561 38974.82203 45539.53238 -5118.14886  4372.34430  1493.94194
  Hartree 58557.85672 54675.76431 61119.41079 -4847.77389  4141.34136  1483.04654
  E(xc)   -2725.58307 -2725.49502 -2725.83170    -0.24141     0.19411    -0.26293
  Local  ************************************  9973.64747 -8520.94872 -2983.47055
  n-local  -482.64591  -485.10604  -480.94879    -3.04818     2.60344     2.14089
  augment  4318.56021  4317.79417  4320.40258    -0.87740     1.00258     1.06430
  Kinetic  6431.51270  6428.14757  6436.36591    -3.50473     3.36211     3.91233
  Fock        0.00000     0.00000     0.00000     0.00000     0.00000     0.00000
  Total     -16.71339   -16.96860   -16.77904     0.05300    -0.10080     0.37252
  in kB      -2.47610    -2.51391    -2.48583     0.00785    -0.01493     0.05519

 VOLUME and BASIS-vectors are now :
  energy-cutoff  :      249.84
  volume of cell :    10814.49
      direct lattice vectors                 reciprocal lattice vectors
    22.114070492  0.000000000  0.000000000     0.045220078  0.000000000  0.000000000
     0.000000000 22.114070492  0.000000000     0.000000000  0.045220078  0.000000000
     0.000000000  0.000000000 22.114070492     0.000000000  0.000000000  0.045220078

  length of vectors
    22.114070492 22.114070492 22.114070492     0.045220078  0.045220078  0.045220078

 FORCES acting on ions
    electron-ion (+dipol)            ewald-force                    non-local-force                 convergence-correction
   -.147E+04 -.102E+04 -.643E+02   0.147E+04 0.102E+04 0.651E+02   0.346E+01 0.294E+01 -.768E+00   -.219E-01 -.851E-02 0.473E-02
   -.750E+03 -.634E+03 0.143E+04   0.747E+03 0.633E+03 -.143E+04   0.214E+01 0.112E+01 -.160E+01   -.168E-01 0.119E-01 -.583E-02
   -.153E+04 -.456E+03 0.672E+03   0.153E+04 0.455E+03 -.670E+03   0.219E+01 0.125E+01 -.229E+01   0.104E-01 0.113E-01 0.146E-01
   -.107E+04 -.820E+03 -.107E+04   0.107E+04 0.819E+03 0.106E+04   0.205E+01 0.147E+01 0.131E+01   0.113E-03 0.532E-02 0.136E-01
   0.281E+03 -.355E+03 0.163E+04   -.281E+03 0.354E+03 -.162E+04   -.379E+00 0.102E+01 -.242E+01   -.380E-02 -.438E-02 -.102E-01
   0.108E+03 0.904E+02 -.753E+03   -.107E+03 -.896E+02 0.752E+03   -.967E+00 -.816E+00 0.129E+01   -.194E-02 0.141E-01 -.168E-01
   0.152E+03 -.169E+04 -.468E+03   -.152E+03 0.169E+04 0.467E+03   0.126E-01 0.469E+01 0.828E+00   -.144E-01 -.385E-02 0.206E-01
   0.223E+03 -.447E+03 0.631E+03   -.223E+03 0.446E+03 -.629E+03   0.110E-01 0.133E+01 -.146E+01   0.103E-01 -.109E-01 0.859E-02
   0.521E+03 0.127E+04 -.924E+03   -.520E+03 -.127E+04 0.922E+03   -.101E+01 -.187E+01 0.172E+01   0.126E-01 -.808E-03 0.700E-02
   -.168E+04 0.505E+02 -.262E+03   0.168E+04 -.509E+02 0.261E+03   0.296E+01 0.401E+00 0.417E+00   0.851E-02 -.952E-02 0.306E-02
   -.131E+03 -.129E+04 0.124E+04   0.129E+03 0.129E+04 -.124E+04   0.136E+01 0.375E+01 -.259E+01   0.352E-02 -.131E-01 -.166E-02
   0.158E+04 -.584E+03 0.340E+03   -.158E+04 0.583E+03 -.342E+03   -.321E+01 0.808E+00 0.128E+01   0.763E-02 0.510E-02 -.226E-02
   -.767E+03 -.152E+04 -.322E+03   0.766E+03 0.152E+04 0.323E+03   0.512E+00 0.284E+01 -.416E+00   0.190E-01 -.747E-02 0.410E-02
   0.143E+04 -.459E+03 -.800E+03   -.143E+04 0.458E+03 0.800E+03   -.273E+01 0.636E+00 0.810E-02   -.295E-02 -.263E-02 -.294E-02
   -.143E+04 0.753E+03 0.343E+03   0.142E+04 -.752E+03 -.342E+03   0.248E+01 -.930E+00 -.521E+00   -.225E-03 -.461E-02 0.317E-02
   -.130E+04 0.100E+04 -.568E+03   0.130E+04 -.997E+03 0.569E+03   0.140E+01 -.317E+01 -.101E+00   -.185E-02 0.412E-02 0.181E-02
   0.417E+03 0.163E+04 -.791E+02   -.416E+03 -.162E+04 0.784E+02   -.927E+00 -.187E+01 0.666E+00   0.327E-02 0.132E-02 -.616E-02
   0.784E+03 -.795E+02 -.121E+03   -.782E+03 0.802E+02 0.120E+03   -.148E+01 -.756E+00 0.773E+00   0.731E-02 0.164E-02 -.581E-02
   0.109E+04 -.124E+04 -.818E+02   -.109E+04 0.124E+04 0.819E+02   -.155E+01 0.210E+01 -.974E-01   -.342E-02 -.320E-02 -.509E-02
   0.104E+04 0.134E+04 0.644E+03   -.104E+04 -.133E+04 -.643E+03   -.384E+01 -.386E+01 -.115E+01   0.112E-01 -.260E-04 -.704E-03
   0.116E+04 0.612E+03 -.108E+04   -.116E+04 -.611E+03 0.108E+04   -.131E+01 -.138E+01 0.106E+01   -.178E-02 0.968E-02 0.770E-02
   -.354E+03 0.699E+03 -.189E+03   0.354E+03 -.697E+03 0.189E+03   -.355E+00 -.176E+01 0.514E+00   -.533E-02 0.887E-02 -.102E-02
   -.829E+03 0.109E+04 0.107E+04   0.826E+03 -.108E+04 -.107E+04   0.251E+01 -.204E+01 -.260E+01   0.532E-02 0.262E-01 -.110E-01
   0.355E+03 0.644E+03 -.163E+04   -.354E+03 -.641E+03 0.163E+04   -.101E+01 -.293E+01 0.462E+01   -.696E-02 0.102E-01 -.127E-02
   0.118E+04 -.301E+03 0.122E+04   -.118E+04 0.300E+03 -.122E+04   -.243E+01 0.980E+00 -.287E+01   -.594E-02 -.470E-03 -.611E-02
   0.144E+04 0.476E+03 0.616E+03   -.144E+04 -.475E+03 -.615E+03   -.228E+01 -.278E+00 -.135E+01   0.296E-02 -.187E-02 -.291E-02
   0.488E+02 -.166E+04 0.444E+03   -.497E+02 0.166E+04 -.444E+03   0.920E+00 0.319E+01 -.193E+00   -.390E-03 -.210E-02 -.216E-01
   0.171E+04 0.354E+03 -.306E+03   -.171E+04 -.352E+03 0.305E+03   -.487E+01 -.158E+01 0.603E+00   -.142E-01 -.612E-02 0.181E-02
   -.720E+03 -.247E+03 -.290E+03   0.718E+03 0.246E+03 0.289E+03   0.172E+01 0.109E+01 0.318E+00   -.158E-01 0.349E-02 0.180E-02
   -.452E+03 -.172E+03 -.163E+04   0.453E+03 0.172E+03 0.163E+04   -.108E+01 0.225E+00 0.288E+01   0.201E-05 0.284E-02 -.859E-02
   -.185E+03 0.475E+03 0.156E+04   0.184E+03 -.475E+03 -.156E+04   0.542E+00 0.385E-01 -.246E+01   -.729E-02 -.412E-03 0.325E-02
   -.190E+03 -.102E+04 -.130E+04   0.189E+03 0.102E+04 0.130E+04   0.840E+00 0.184E+01 0.159E+01   0.536E-02 -.640E-02 -.166E-02
   -.387E+03 0.160E+04 -.715E+03   0.386E+03 -.159E+04 0.712E+03   0.700E+00 -.449E+01 0.244E+01   -.202E-02 -.118E-01 0.888E-02
   -.837E+03 -.118E+04 0.614E+03   0.836E+03 0.118E+04 -.613E+03   0.103E+01 0.144E+01 -.777E+00   0.934E-02 0.377E-02 -.252E-02
   -.126E+04 0.166E+03 -.117E+04   0.126E+04 -.166E+03 0.117E+04   0.288E+01 -.901E-01 0.233E+01   -.806E-03 -.493E-04 0.478E-02
   -.123E+04 0.150E+03 0.128E+04   0.123E+04 -.150E+03 -.127E+04   0.332E+01 0.193E+00 -.332E+01   -.136E-02 -.259E-01 -.454E-02
   0.115E+04 0.113E+04 -.310E+03   -.115E+04 -.113E+04 0.310E+03   -.168E+01 -.193E+01 0.362E+00   -.932E-02 0.579E-02 -.172E-01
   0.649E+03 -.310E+03 -.152E+04   -.649E+03 0.310E+03 0.152E+04   0.142E+00 0.222E-01 0.225E+01   0.937E-02 -.109E-01 0.122E-01
   0.334E+03 0.540E+03 0.451E+03   -.333E+03 -.539E+03 -.451E+03   -.741E+00 -.159E+01 -.455E-01   0.172E-01 0.843E-02 0.826E-03
   0.900E+02 -.744E+03 -.287E+03   -.904E+02 0.742E+03 0.287E+03   0.352E+00 0.186E+01 0.867E-01   0.290E-01 -.410E-01 0.111E-01
   -.683E+03 0.154E+04 0.233E+03   0.681E+03 -.154E+04 -.234E+03   0.180E+01 -.205E+01 0.667E+00   -.256E-03 -.127E-02 0.590E-03
   0.807E+03 -.113E+04 -.104E+04   -.805E+03 0.112E+04 0.104E+04   -.172E+01 0.327E+01 0.204E+01   0.227E-01 0.204E-01 -.107E-01
   -.532E+03 0.132E+03 0.586E+03   0.531E+03 -.133E+03 -.585E+03   0.133E+01 0.512E+00 -.120E+01   -.391E-01 0.890E-02 0.183E-01
   -.527E+03 0.868E+03 -.130E+04   0.525E+03 -.867E+03 0.130E+04   0.138E+01 -.104E+01 0.211E+01   -.309E-02 0.316E-02 0.306E-02
   0.753E+03 0.596E+03 0.143E+04   -.753E+03 -.593E+03 -.143E+04   -.565E+00 -.259E+01 -.190E+01   0.385E-02 0.972E-03 -.207E-03
   0.105E+03 0.137E+04 0.994E+03   -.104E+03 -.137E+04 -.992E+03   -.103E+01 -.134E+01 -.167E+01   -.158E-01 -.356E-02 -.481E-02
   0.900E+03 -.119E+04 0.856E+03   -.899E+03 0.119E+04 -.854E+03   -.111E+01 0.205E+01 -.171E+01   -.132E-01 -.191E-02 0.276E-02
   -.177E+01 -.261E+01 0.135E+01   -.193E-11 -.682E-12 -.796E-12   0.178E+01 0.272E+01 -.136E+01   -.110E-01 -.152E-01 0.678E-02

 POSITION                                       TOTAL-FORCE (eV/Angst)
     15.72270     14.06884     12.09338        -0.000421     -0.011696      0.011763
     13.25407     12.77975      7.63843        -0.010713     -0.001836     -0.000595
     15.56228     12.27695      9.94152         0.006155     -0.004398      0.008433
     14.52993     13.62435     14.62985         0.001528      0.002607      0.015815
     10.53960     12.41819      6.95505        -0.007685     -0.006286     -0.006472
     11.30957     11.37788     13.83532        -0.001635     -0.006563     -0.000026
     10.76855     16.41244     13.28275         0.007117     -0.006515     -0.007808
     10.89542     12.79080      9.76106         0.001905      0.006289     -0.001909
     10.65646      8.58980     13.88323         0.003536      0.004728     -0.001414
     16.23688     11.27745     12.46853         0.008249     -0.009691      0.003657
     11.47106     14.90862      7.92945        -0.011131     -0.004735     -0.008464
      6.99194     13.12442     10.41169        -0.001089     -0.000087      0.000715
     13.36530     15.41158     12.79642         0.006993     -0.008404      0.004465
      7.49567     13.07318     13.94975         0.007425      0.004744     -0.001073
     15.26576      9.38546     10.42837        -0.004572      0.000075      0.003985
     15.26888      8.82235     13.24793        -0.004061     -0.001392      0.003138
     10.85667      7.28267     11.34400        -0.000349      0.002168     -0.001467
      9.17797     11.90335     11.83180        -0.004182      0.000113     -0.007012
      8.63751     14.85542     12.02287         0.003711     -0.002088     -0.003888
      8.85782      7.89174      9.34029         0.001931     -0.000269      0.003002
      8.52823     10.50024     14.42048         0.001092      0.004448      0.000074
     12.72970      9.50118     12.06366        -0.000169     -0.001315      0.006490
     14.16339      8.01857      8.07395        -0.007579      0.014279      0.002961
     10.71084     10.16303     16.29283        -0.004770      0.000612     -0.002845
      7.84340     12.43229      7.73141        -0.005087     -0.003621     -0.004001
      7.72760     10.50980      9.71322        -0.000433      0.000117     -0.003083
     11.01756     15.75148     10.55775        -0.002290     -0.009155     -0.005734
      6.58310     11.00320     12.31400        -0.002284      0.000165      0.001578
     13.57739     12.20413     12.34772         0.006711      0.001151      0.006410
     12.90149     11.99100     16.13487        -0.004592     -0.001854     -0.000562
     12.19130     10.04477      7.33326        -0.004441      0.004307      0.006681
     11.77577     14.39548     15.09655         0.004687     -0.003062     -0.003248
     13.00087      7.03653     13.32202        -0.002216     -0.003239      0.000600
     13.39603     14.15652     10.19248         0.010327      0.003674     -0.003588
     15.40572     11.00957     15.12455        -0.004230      0.000046      0.002687
     15.02109     10.58218      7.75502        -0.003840      0.006480      0.008153
      8.65370      9.05314     11.96224         0.001631      0.006889     -0.006405
      9.64070     12.68582     15.83666         0.006160      0.004665      0.004625
     10.57424      9.98147     10.04635        -0.003647      0.000763     -0.001665
     11.18083     13.72472     12.43746         0.007767      0.009447     -0.008257
     13.55339      7.09788     10.58367        -0.003371      0.003072     -0.004177
      8.97146     15.17349     14.92575         0.013508     -0.001098     -0.008154
     13.09629     11.03541      9.79932         0.010731      0.013521      0.001521
     13.14091      9.41869     14.96278        -0.003398     -0.000156      0.003281
      9.34110      9.98729      7.45390        -0.001685     -0.005621     -0.000892
     11.51882      7.60914      8.61249        -0.003250     -0.000300     -0.006621
      8.87719     14.64386      9.10006        -0.008045     -0.000980     -0.000672
    total drift:                               -0.005400      0.091168      0.000456

  FREE ENERGIE OF THE ION-ELECTRON SYSTEM (eV)
  free  energy   TOTEN  =      -101.49831974 eV

  energy  without entropy=     -101.49831974  energy(sigma->0) =     -101.49831974

 d Force = 0.4241546E-03[ 0.106E-03, 0.743E-03]  d Energy = 0.5708819E-03-0.147E-03
 d Force =-0.2288425E+01[-0.230E+01,-0.228E+01]  d Ewald  =-0.2288423E+01-0.165E-05

 reached required accuracy - stopping structural energy minimisation