 vasp.5.3.5 31Mar14 (build Feb 01 2018 12:10:03) gamma-only

 executed on             LinuxIFC date 2019.03.24  21:00:51

 INCAR:
 POTCAR:    PAW_PBE Ag 02Apr2005
 POTCAR:    PAW_PBE Ag 02Apr2005
   VRHFIN =Ag : s1 d10

   TITEL  = PAW_PBE Ag 02Apr2005
   POMASS =  107.868; ZVAL   =   11.000    mass and valenz
   ENMAX  =  249.844; ENMIN  =  187.383 eV

  PAW_PBE Ag 02Apr2005                  :

 POSCAR: Ti49, -328.4628453 <s> Ag </s>
  positions in direct lattice
 exchange correlation table for  LEXCH =        8
   RHO(1)=    0.500       N(1)  =     2000
   RHO(2)=  100.500       N(2)  =     4000

 ion  position               nearest neighbor table
   1  0.376  0.571  0.362-   3 2.57   6 2.62   5 2.69   2 2.81   4 2.89   9 2.91  14 2.99   7 3.05

   2  0.425  0.675  0.408-   9 2.43   5 2.79   3 2.80   1 2.81  13 2.89  10 3.28  24 3.32
   3  0.333  0.612  0.460-  10 2.49   1 2.57   4 2.69   2 2.80  12 2.83  23 2.88   9 3.19
   4  0.289  0.506  0.429-   3 2.69   8 2.75  14 2.81  11 2.82   1 2.89   6 2.98  12 3.00  23 3.03

   5  0.484  0.603  0.327-   1 2.69   7 2.71  13 2.71   9 2.73   2 2.79  16 2.82
   6  0.342  0.472  0.313-  15 2.61   1 2.62  14 2.64   8 2.71   4 2.98   7 3.02
   7  0.473  0.484  0.329-  14 2.62   5 2.71  17 2.83  27 2.94  15 2.96   6 3.02   1 3.05  16 3.17
                             9 3.52
   8  0.302  0.391  0.391-  14 2.62   6 2.71  11 2.72  20 2.73  15 2.73   4 2.75
   9  0.471  0.587  0.446-   2 2.43  22 2.66  17 2.66   5 2.73  13 2.75  12 2.81  24 2.90   1 2.91
                            10 2.96  25 3.07   3 3.19  16 3.24   7 3.52  14 3.57
  10  0.400  0.635  0.544-   3 2.49  19 2.58  22 2.83  12 2.84  24 2.89   9 2.96  23 3.12   2 3.28
                            31 3.33
  11  0.315  0.414  0.509-  34 2.68   8 2.72   4 2.82  28 2.83  12 2.87  20 3.01  23 3.02  14 3.02
                            29 3.23
  12  0.393  0.514  0.510-  23 2.37  14 2.64  22 2.80   9 2.81   3 2.83  28 2.84  10 2.84  11 2.87
                            19 2.97   4 3.00  29 3.04  17 3.16
  13  0.553  0.666  0.403-   5 2.71   9 2.75  25 2.75  21 2.75  18 2.76  16 2.81  24 2.82   2 2.89

  14  0.399  0.451  0.412-   8 2.62  15 2.62   7 2.62   6 2.64  12 2.64  17 2.76  20 2.80   4 2.81
                            27 2.85   1 2.99  11 3.02  29 3.07   9 3.57
  15  0.402  0.375  0.325-   6 2.61  14 2.62  27 2.67   8 2.73  20 2.83   7 2.96
  16  0.588  0.551  0.372-  30 2.75  25 2.78  13 2.81  18 2.81   5 2.82  17 2.95  36 3.01   7 3.17
                             9 3.24
  17  0.512  0.477  0.447-  27 2.63   9 2.66  39 2.66  30 2.72  14 2.76  29 2.80   7 2.83  16 2.95
                            22 3.11  38 3.13  12 3.16  25 3.39
  18  0.671  0.637  0.407-  21 2.61  25 2.63  36 2.71  33 2.75  13 2.76  16 2.81
  19  0.405  0.562  0.632-  10 2.58  35 2.68  22 2.71  28 2.81  31 2.88  23 2.91  12 2.97  32 3.39

[...]

  29  0.456  0.396  0.522-  40 2.58  32 2.60  34 2.68  20 2.73  17 2.80  41 2.85  28 2.87  38 2.93
                            12 3.04  14 3.07  27 3.08  44 3.22  11 3.23
  30  0.618  0.439  0.406-  46 2.66  17 2.72  38 2.75  16 2.75  36 2.80  39 2.82  27 3.11
  31  0.505  0.639  0.647-  35 2.63  22 2.73  26 2.84  19 2.88  24 2.98  43 3.02  37 3.07  10 3.33

  32  0.507  0.455  0.606-  29 2.60  22 2.62  35 2.70  45 2.72  44 2.72  41 2.76  39 2.87  28 2.90
                            37 3.07  19 3.39
  33  0.710  0.625  0.521-  42 2.66  25 2.71  21 2.73  18 2.75  47 2.76  36 2.90  26 2.96  37 3.59

[...]

  37  0.602  0.551  0.611-  43 2.43  39 2.64  22 2.66  42 2.70  48 2.75  26 2.80  45 2.86  25 2.96
                            35 3.02  32 3.07  31 3.07  47 3.10  49 3.40  33 3.59
  38  0.577  0.363  0.492-  39 2.65  44 2.70  30 2.75  27 2.87  46 2.88  29 2.93  40 2.98  17 3.13
                            49 3.39
  39  0.601  0.473  0.524-  46 2.62  37 2.64  38 2.65  17 2.66  49 2.68  25 2.81  30 2.82  32 2.87
                            47 2.98  22 3.12  36 3.14  44 3.59
  40  0.481  0.286  0.538-  29 2.58  44 2.71  34 2.72  41 2.79  38 2.98  20 3.12
  41  0.453  0.351  0.639-  44 2.47  34 2.58  28 2.74  32 2.76  40 2.79  29 2.85
  42  0.704  0.607  0.637-  48 2.55  26 2.65  33 2.66  37 2.70  43 2.78  47 2.84
  43  0.609  0.587  0.712-  37 2.43  35 2.75  42 2.78  48 2.81  45 2.96  31 3.02  26 3.24
  44  0.557  0.346  0.608-  41 2.47  38 2.70  40 2.71  32 2.72  49 2.78  29 3.22  45 3.31  39 3.59

[...]

  48  0.692  0.502  0.676-  42 2.55  45 2.62  49 2.66  47 2.72  37 2.75  43 2.81
  49  0.660  0.413  0.606-  48 2.66  39 2.68  46 2.72  44 2.78  47 2.81  45 2.83  38 3.39  37 3.40

  LATTYP: Found a simple cubic cell.
 ALAT       =    22.6608989678

  Lattice vectors:

 A1 = (  22.6608989678,   0.0000000000,   0.0000000000)
 A2 = (   0.0000000000,  22.6608989678,   0.0000000000)
 A3 = (   0.0000000000,   0.0000000000,  22.6608989678)

Analysis of symmetry for initial positions (statically):
 Subroutine PRICEL returns:
 Original cell was already a primitive cell.

 Routine SETGRP: Setting up the symmetry group for a
 simple cubic supercell.

 Subroutine GETGRP returns: Found  1 space group operations
 (whereof  1 operations were pure point group operations)
 out of a pool of 48 trial point group operations.

The static configuration has the point symmetry C_1 .

Analysis of symmetry for dynamics (positions and initial velocities):
 Subroutine PRICEL returns:
 Original cell was already a primitive cell.

 Routine SETGRP: Setting up the symmetry group for a
 simple cubic supercell.

 Subroutine GETGRP returns: Found  1 space group operations
 (whereof  1 operations were pure point group operations)
 out of a pool of 48 trial point group operations.

The dynamic configuration has the point symmetry C_1 .

Analysis of magnetic symmetry:
 Subroutine PRICEL returns:
 Original cell was already a primitive cell.

 Subroutine MAGSYM returns: Found  1 space group operations
 (whereof  1 operations were pure point group operations)
 out of a pool of  1 trial space group operations
 (whereof  1 operations were pure point group operations)
 and found also     1 'primitive' translations

The magnetic configuration has the point symmetry C_1 .

 KPOINTS: Gamma-point only
  k-points in reciprocal lattice
Space group operators:
 irot       det(A)        alpha          n_x          n_y          n_z        tau_x        tau_y        tau_z
    1     1.000000     0.000000     1.000000     0.000000     0.000000     0.000000     0.000000     0.000000

 I would recommend the setting:
   dimension x,y,z NGX =    88 NGY =   88 NGZ =   88
 SYSTEM =  unknown system
 POSCAR =  Ti49, -328.4628453 <s> Ag </s>

 Startparameter for this run:
   NWRITE =      2    write-flag & timer
   PREC   = normal    normal or accurate (medium, high low for compatibility)
   ISTART =      0    job   : 0-new  1-cont  2-samecut
   ICHARG =      2    charge: 1-file 2-atom 10-const
   ISPIN  =      2    spin polarized calculation?
   LNONCOLLINEAR =      F non collinear calculations
   LSORBIT =      F    spin-orbit coupling
   INIWAV =      1    electr: 0-lowe 1-rand  2-diag
   LASPH  =      F    aspherical Exc in radial PAW
   METAGGA=      F    non-selfconsistent MetaGGA calc.

 Electronic Relaxation 1
   ENCUT  =  249.8 eV  18.36 Ry    4.29 a.u.  29.21 29.21 29.21*2*pi/ulx,y,z
   ENINI  =  249.8     initial cutoff
   ENAUG  =  412.5 eV  augmentation charge cutoff
   NELM   =     60;   NELMIN=  2; NELMDL= -5     # of ELM steps
   EDIFF  = 0.1E-03   stopping-criterion for ELM
   LREAL  =      F    real-space projection
   NLSPLINE    = F    spline interpolate recip. space projectors
   LCOMPAT=      F    compatible to vasp.4.4
   GGA_COMPAT  = T    GGA compatible to vasp.4.4-vasp.4.6
   LMAXPAW     = -100 max onsite density
   LMAXMIX     =    2 max onsite mixed and CHGCAR
   VOSKOWN=      0    Vosko Wilk Nusair interpolation
   ROPT   =    0.00000
 Ionic relaxation
   EDIFFG = 0.1E-02   stopping-criterion for IOM
   NSW    =   1000    number of steps for IOM
   NBLOCK =      1;   KBLOCK =   1000    inner block; outer block
   IBRION =      2    ionic relax: 0-MD 1-quasi-New 2-CG
   NFREE  =      1    steps in history (QN), initial steepest desc. (CG)
   ISIF   =      2    stress and relaxation
   IWAVPR =     11    prediction:  0-non 1-charg 2-wave 3-comb
   ISYM   =      2    0-nonsym 1-usesym 2-fastsym
   LCORR  =      T    Harris-Foulkes like correction to forces

   POTIM  = 0.1000    time-step for ionic-motion
   TEIN   =    0.0    initial temperature
   TEBEG  =    0.0;   TEEND  =   0.0 temperature during run
   SMASS  =  -3.00    Nose mass-parameter (am)
   estimated Nose-frequenzy (Omega)   =  0.10E-29 period in steps =****** mass=  -0.117E-25a.u.
   SCALEE = 1.0000    scale energy and forces
   NPACO  =    256;   APACO  = 16.0  distance and # of slots for P.C.
   PSTRESS=    0.0 pullay stress

  Mass of Ions in am
   POMASS = 107.87
  Ionic Valenz
   ZVAL   =  11.00
  Atomic Wigner-Seitz radii
  virtual crystal weights
   VCA    =   1.00
   NELECT =     539.0000    total number of electrons
   NUPDOWN=      -1.0000    fix difference up-down

 DOS related values:
   EMIN   =  10.00;   EMAX   =-10.00  energy-range for DOS
   EFERMI =   0.00
   ISMEAR =     0;   SIGMA  =   0.00  broadening in eV -4-tet -1-fermi 0-gaus

 Electronic relaxation 2 (details)
   IALGO  =     38    algorithm
   LDIAG  =      T    sub-space diagonalisation (order eigenvalues)
   LSUBROT=      F    optimize rotation matrix (better conditioning)
   TURBO    =      0    0=normal 1=particle mesh
   IRESTART =      0    0=no restart 2=restart with 2 vectors
   NREBOOT  =      0    no. of reboots
   NMIN     =      0    reboot dimension
   EREF     =   0.00    reference energy to select bands
   IMIX   =      4    mixing-type and parameters
     AMIX     =   0.40;   BMIX     =  1.00
     AMIX_MAG =   1.60;   BMIX_MAG =  1.00
     AMIN     =   0.10
     WC   =   100.;   INIMIX=   1;  MIXPRE=   1;  MAXMIX= -45

 Intra band minimization:
   WEIMIN = 0.0010     energy-eigenvalue tresh-hold
   EBREAK =  0.72E-07  absolut break condition
   DEPER  =   0.30     relativ break condition

   TIME   =   0.40     timestep for ELM

  volume/ion in A,a.u.               =     237.48      1602.62
  Fermi-wavevector in a.u.,A,eV,Ry     =   0.587932  1.111031  4.703049  0.345664
  Thomas-Fermi vector in A             =   1.634999

 Write flags
   LWAVE  =      F    write WAVECAR
   LCHARG =      F    write CHGCAR
   LVTOT  =      F    write LOCPOT, total local potential
   LVHAR  =      F    write LOCPOT, Hartree potential only
   LELF   =      F    write electronic localiz. function (ELF)
   LORBIT =      0    0 simple, 1 ext, 2 COOP (PROOUT)

 Dipole corrections
   LMONO  =      F    monopole corrections only (constant potential shift)
   LDIPOL =      F    correct potential (dipole corrections)
   IDIPOL =      0    1-x, 2-y, 3-z, 4-all directions
   EPSILON=  1.0000000 bulk dielectric constant

 Exchange correlation treatment:
   GGA     =    PE    GGA type
   VOSKOWN=      0    Vosko Wilk Nusair interpolation
   LHFCALC =     F    Hartree Fock is set to
   LHFONE  =     F    Hartree Fock one center treatment
   AEXX    =    0.0000 exact exchange contribution

[...]
       1 -82.0883       2 -81.8660       3 -81.8861       4 -81.9698       5 -81.9802
       6 -81.8950       7 -81.9877       8 -81.9577       9 -82.3503      10 -82.0329
      11 -81.9741      12 -82.2739      13 -82.0587      14 -82.4225      15 -81.9326
      16 -82.0241      17 -82.4020      18 -81.9282      19 -82.0817      20 -81.9731
      21 -81.9800      22 -82.3595      23 -81.8346      24 -81.9884      25 -82.2907
      26 -82.0034      27 -82.0936      28 -82.0250      29 -82.1868      30 -82.0333
      31 -81.9733      32 -82.1386      33 -81.9034      34 -81.8756      35 -81.9369
      36 -81.9736      37 -82.2323      38 -82.0121      39 -82.3304      40 -81.8895
      41 -82.0172      42 -81.9577      43 -81.8660      44 -81.8827      45 -81.8509
      46 -81.9731      47 -81.9666      48 -81.8954      49 -82.0417

 E-fermi :  -3.1611     XC(G=0):  -1.4339     alpha+bet : -0.9665

[...]

 spin component 2

 k-point     1 :       0.0000    0.0000    0.0000
  band No.  band energies     occupation
      1      -9.7158      1.00000
      2      -9.2339      1.00000
      3      -9.1248      1.00000
      4      -9.0789      1.00000
      5      -9.0215      1.00000
      6      -8.9997      1.00000
      7      -8.9645      1.00000
      8      -8.9288      1.00000
      9      -8.9026      1.00000
     10      -8.8733      1.00000
     11      -8.8444      1.00000
     12      -8.8135      1.00000
     13      -8.7800      1.00000
     14      -8.7725      1.00000
     15      -8.7467      1.00000
     16      -8.7387      1.00000
     17      -8.6997      1.00000
     18      -8.6793      1.00000
     19      -8.6665      1.00000
     20      -8.6328      1.00000
     21      -8.6134      1.00000
     22      -8.5781      1.00000
     23      -8.5589      1.00000
     24      -8.5554      1.00000
     25      -8.5364      1.00000
     26      -8.5212      1.00000
     27      -8.4972      1.00000
     28      -8.4901      1.00000
     29      -8.4588      1.00000
     30      -8.4481      1.00000
     31      -8.4310      1.00000
     32      -8.4125      1.00000
     33      -8.4088      1.00000
     34      -8.3993      1.00000
     35      -8.3767      1.00000
     36      -8.3607      1.00000
     37      -8.3445      1.00000
     38      -8.3419      1.00000
     39      -8.3262      1.00000
     40      -8.3152      1.00000
     41      -8.3009      1.00000
     42      -8.2857      1.00000
     43      -8.2834      1.00000
     44      -8.2695      1.00000
     45      -8.2604      1.00000
     46      -8.2548      1.00000
     47      -8.2326      1.00000
     48      -8.2083      1.00000
     49      -8.2014      1.00000
     50      -8.1798      1.00000
     51      -8.1676      1.00000
     52      -8.1596      1.00000
     53      -8.1431      1.00000
     54      -8.1225      1.00000
     55      -8.1124      1.00000
     56      -8.1034      1.00000
     57      -8.0935      1.00000
     58      -8.0903      1.00000
     59      -8.0767      1.00000
     60      -8.0640      1.00000
[...]
    334       1.2794      0.00000
    335       1.3154      0.00000
    336       1.3287      0.00000
    337       1.3882      0.00000
    338       1.4305      0.00000
    339       1.4556      0.00000
    340       1.4834      0.00000
    341       1.4874      0.00000
    342       1.5091      0.00000
    343       1.5389      0.00000
    344       1.5624      0.00000
    345       1.5705      0.00000
    346       1.5735      0.00000
    347       1.6081      0.00000
    348       1.6146      0.00000

[...]

 soft charge-density along one line, spin component           2
         0         1         2         3         4         5         6         7         8         9
 total charge-density along one line

------------------------ aborting loop because EDIFF is reached ----------------------------------------

  FORCE on cell =-STRESS in cart. coord.  units (eV):
  Direction    XX          YY          ZZ          XY          YZ          ZX
  Alpha Z   175.49912   175.49912   175.49912
  Ewald   57341.35347 44038.53842 37859.16124 10980.31942 -1469.78894 12558.96342
  Hartree 73270.84532 60422.77119 54435.87738 10295.86419 -1322.01036 11748.12146
  E(xc)   -2841.85904 -2842.16402 -2842.06473     0.94959    -0.32741     1.13136
  Local  ************************************-21274.14381  2790.24044-24303.14117
  n-local  -506.25191  -508.84037  -510.10961     2.19958    -0.14189     1.72632
  augment  4503.32861  4503.67537  4503.33497    -1.62453     0.60064    -2.04513
  Kinetic  6707.93678  6707.75470  6706.37903    -3.48782     1.47891    -4.82666
  Fock        0.00000     0.00000     0.00000     0.00000     0.00000     0.00000
  Total     -16.95488   -17.46240   -17.92756     0.07662     0.05139    -0.07038
  in kB      -2.33439    -2.40427    -2.46831     0.01055     0.00708    -0.00969

 VOLUME and BASIS-vectors are now :
  energy-cutoff  :      249.84
  volume of cell :    11636.74
      direct lattice vectors                 reciprocal lattice vectors
    22.660898968  0.000000000  0.000000000     0.044128876  0.000000000  0.000000000
     0.000000000 22.660898968  0.000000000     0.000000000  0.044128876  0.000000000
     0.000000000  0.000000000 22.660898968     0.000000000  0.000000000  0.044128876

  length of vectors
    22.660898968 22.660898968 22.660898968     0.044128876  0.044128876  0.044128876

 FORCES acting on ions
    electron-ion (+dipol)            ewald-force                    non-local-force                 convergence-correction
   0.924E+03 -.743E+03 0.112E+04   -.924E+03 0.742E+03 -.112E+04   -.532E+00 0.103E+01 -.985E-01   0.287E-02 0.317E-02 0.109E-01
   0.760E+03 -.157E+04 0.561E+03   -.759E+03 0.157E+04 -.558E+03   -.988E+00 0.442E+01 -.246E+01   0.914E-02 -.210E-01 0.461E-02
   0.143E+04 -.107E+04 0.530E+02   -.143E+04 0.106E+04 -.537E+02   -.246E+01 0.261E+01 0.699E+00   -.647E-02 0.226E-02 -.117E-02
   0.164E+04 -.229E+03 0.526E+03   -.164E+04 0.229E+03 -.525E+03   -.310E+01 0.484E+00 -.107E+01   0.121E-02 0.485E-02 0.174E-02
   0.123E+03 -.850E+03 0.162E+04   -.122E+03 0.847E+03 -.161E+04   -.714E+00 0.231E+01 -.444E+01   -.315E-02 -.103E-01 0.787E-02
   0.882E+03 -.367E+02 0.154E+04   -.880E+03 0.361E+02 -.154E+04   -.236E+01 0.546E+00 -.398E+01   0.137E-02 -.602E-03 0.300E-02
   -.151E+03 0.178E+03 0.168E+04   0.150E+03 -.177E+03 -.168E+04   0.886E+00 -.987E+00 -.284E+01   -.113E-02 -.411E-02 0.666E-02
   0.136E+04 0.817E+03 0.816E+03   -.136E+04 -.815E+03 -.814E+03   -.374E+01 -.224E+01 -.277E+01   0.647E-02 0.214E-03 0.861E-03
   0.245E+03 -.765E+03 0.553E+03   -.245E+03 0.765E+03 -.552E+03   -.649E+00 0.387E+00 -.829E+00   -.227E-01 0.420E-01 -.107E-01
   0.961E+03 -.131E+04 -.610E+03   -.959E+03 0.131E+04 0.609E+03   -.220E+01 0.101E+01 0.487E+00   0.124E-02 -.111E-02 -.403E-02
   0.152E+04 0.688E+03 -.204E+03   -.151E+04 -.687E+03 0.204E+03   -.133E+01 -.555E+00 0.126E-01   -.450E-02 -.253E-02 -.398E-02
   0.856E+03 -.229E+03 -.204E+03   -.855E+03 0.229E+03 0.204E+03   -.142E+01 -.563E-01 0.216E+00   -.737E-02 -.229E-02 0.102E-01
   -.247E+03 -.141E+04 0.107E+04   0.247E+03 0.141E+04 -.107E+04   -.399E+00 0.277E+01 -.176E+01   -.285E-02 -.172E-02 -.532E-02
   0.609E+03 0.398E+03 0.702E+03   -.608E+03 -.397E+03 -.701E+03   -.114E+01 -.372E+00 -.112E+01   0.112E-01 -.363E-04 0.840E-02
   0.191E+03 0.102E+04 0.146E+04   -.191E+03 -.102E+04 -.145E+04   0.619E+00 -.259E+01 -.442E+01   0.314E-02 0.542E-02 0.142E-02
   -.707E+03 -.151E+03 0.149E+04   0.706E+03 0.150E+03 -.149E+04   0.940E+00 0.298E+00 -.576E+00   0.306E-02 -.555E-02 0.638E-03
   -.163E+03 0.289E+03 0.559E+03   0.162E+03 -.289E+03 -.559E+03   0.833E+00 -.136E+00 0.225E+00   -.573E-03 -.303E-01 -.589E-02
   -.117E+04 -.754E+03 0.117E+04   0.117E+04 0.752E+03 -.117E+04   0.269E+01 0.205E+01 -.341E+01   -.345E-02 -.265E-02 0.188E-02
   0.104E+04 -.483E+03 -.136E+04   -.104E+04 0.482E+03 0.135E+04   -.331E+01 0.664E+00 0.300E+01   -.224E-02 0.336E-02 -.623E-02
   0.623E+03 0.154E+04 0.517E+03   -.622E+03 -.154E+04 -.517E+03   -.342E+00 -.216E+01 -.507E+00   0.108E-03 0.289E-02 -.412E-02
   -.779E+03 -.161E+04 0.246E+03   0.777E+03 0.161E+04 -.245E+03   0.172E+01 0.464E+01 -.813E+00   -.693E-03 -.283E-02 0.114E-02
   0.106E+03 -.337E+03 -.495E+03   -.105E+03 0.336E+03 0.494E+03   -.913E+00 0.834E+00 0.116E+01   -.284E-02 -.209E-01 0.309E-01
   0.161E+04 -.307E+03 -.716E+03   -.161E+04 0.304E+03 0.713E+03   -.407E+01 0.247E+01 0.233E+01   -.322E-02 -.947E-02 0.162E-02
   0.161E+03 -.171E+04 -.164E+03   -.161E+03 0.170E+04 0.164E+03   -.285E+00 0.257E+01 -.338E+00   -.116E-02 0.993E-02 -.453E-02
   -.629E+03 -.623E+03 0.220E+03   0.628E+03 0.622E+03 -.220E+03   0.123E+01 0.817E+00 -.406E+00   0.246E-02 0.799E-02 0.237E-02
   -.592E+03 -.141E+04 -.667E+03   0.592E+03 0.141E+04 0.666E+03   0.288E+00 0.115E+01 0.676E+00   0.470E-02 0.568E-02 -.328E-02
   -.385E+03 0.130E+04 0.101E+04   0.384E+03 -.130E+04 -.101E+04   0.107E+01 -.193E+01 -.223E+01   0.534E-02 0.440E-02 0.129E-01
   0.116E+04 0.409E+03 -.122E+04   -.116E+04 -.408E+03 0.122E+04   -.416E+00 -.820E+00 0.337E+01   -.127E-01 0.311E-02 -.286E-02
   0.270E+03 0.811E+03 -.245E+03   -.270E+03 -.809E+03 0.244E+03   0.822E-02 -.155E+01 0.305E+00   -.324E-02 0.614E-02 0.187E-02
   -.946E+03 0.824E+03 0.129E+04   0.944E+03 -.823E+03 -.128E+04   0.192E+01 -.158E+01 -.339E+01   0.123E-02 -.954E-03 0.769E-02
   0.394E+03 -.127E+04 -.114E+04   -.393E+03 0.127E+04 0.114E+04   -.490E+00 0.149E+01 0.227E+01   0.954E-02 -.154E-02 -.110E-01
   0.263E+03 0.463E+03 -.121E+04   -.264E+03 -.463E+03 0.121E+04   0.110E+01 0.388E+00 -.718E+00   -.208E-01 -.574E-02 0.215E-01
   -.155E+04 -.775E+03 0.966E+02   0.155E+04 0.773E+03 -.962E+02   0.280E+01 0.166E+01 -.473E+00   -.517E-02 0.599E-03 0.361E-03
   0.101E+04 0.138E+04 -.527E+03   -.101E+04 -.137E+04 0.525E+03   -.225E+01 -.319E+01 0.153E+01   -.479E-02 -.902E-03 -.252E-02
   0.329E+03 -.241E+03 -.172E+04   -.328E+03 0.240E+03 0.172E+04   -.126E+01 0.783E+00 0.338E+01   0.246E-02 -.384E-03 -.542E-02
   -.148E+04 0.129E+03 0.897E+03   0.147E+04 -.127E+03 -.895E+03   0.151E+01 -.129E+01 -.150E+01   0.134E-02 0.360E-02 -.456E-03
   -.549E+03 -.179E+03 -.897E+03   0.548E+03 0.179E+03 0.896E+03   0.680E+00 0.556E+00 0.766E+00   0.460E-02 0.782E-02 -.113E-01
   -.772E+03 0.144E+04 0.208E+03   0.771E+03 -.144E+04 -.208E+03   0.120E+01 -.117E+01 -.101E-01   0.101E-01 0.673E-02 0.100E-01
   -.688E+03 0.408E+03 -.217E+02   0.687E+03 -.406E+03 0.229E+02   0.829E+00 -.107E+01 -.122E+01   0.167E-01 0.212E-03 -.105E-01
   -.126E+03 0.176E+04 -.628E+02   0.126E+03 -.176E+04 0.619E+02   0.233E+00 -.413E+01 0.932E+00   0.152E-02 0.553E-02 -.198E-03
   0.434E+03 0.120E+04 -.127E+04   -.432E+03 -.119E+04 0.127E+04   -.117E+01 -.283E+01 0.363E+01   -.928E-02 -.158E-01 -.740E-02
   -.135E+04 -.726E+03 -.853E+03   0.135E+04 0.724E+03 0.851E+03   0.311E+01 0.209E+01 0.186E+01   -.714E-03 0.213E-03 -.416E-02
   -.398E+03 -.877E+03 -.150E+04   0.397E+03 0.875E+03 0.149E+04   0.939E+00 0.177E+01 0.512E+01   -.221E-04 0.905E-02 -.847E-02
   -.457E+03 0.138E+04 -.902E+03   0.456E+03 -.138E+04 0.901E+03   0.500E+00 -.246E+01 0.979E+00   -.389E-02 0.281E-02 0.563E-02
   -.342E+03 0.668E+03 -.159E+04   0.342E+03 -.666E+03 0.159E+04   0.101E+00 -.148E+01 0.330E+01   0.634E-02 0.122E-01 -.808E-02
   -.146E+04 0.105E+04 0.394E+03   0.146E+04 -.104E+04 -.392E+03   0.349E+01 -.363E+01 -.165E+01   0.499E-02 0.192E-02 -.458E-02
   -.165E+04 0.187E+03 -.231E+03   0.165E+04 -.187E+03 0.231E+03   0.204E+01 -.209E+00 0.768E-01   0.327E-02 -.255E-03 -.471E-02
   -.118E+04 0.260E+03 -.129E+04   0.118E+04 -.259E+03 0.128E+04   0.300E+01 -.914E+00 0.420E+01   0.636E-02 -.341E-02 -.998E-02
   -.113E+04 0.108E+04 -.705E+03   0.113E+04 -.108E+04 0.704E+03   0.202E+01 -.187E+01 0.140E+01   0.474E-02 -.391E-02 -.102E-01
   -.237E+00 -.425E+00 0.119E+01   0.296E-11 0.159E-11 0.409E-11   0.230E+00 0.565E+00 -.110E+01   0.250E-02 0.380E-02 0.308E-02

 POSITION                                       TOTAL-FORCE (eV/Angst)
      8.61360     12.94081      8.53917        -0.007769     -0.003037      0.007543
      9.31479     15.63703      9.77691        -0.015593      0.015798     -0.006047
      7.20961     13.90003     10.77182        -0.008833      0.001038      0.005646
      6.48712     11.42352      9.60659         0.000105     -0.000120     -0.000228
     10.91061     13.94471      7.31221         0.000524     -0.010108     -0.006331
      7.85877     10.81119      6.90467         0.001128      0.004539      0.009209
     10.76510     11.08554      7.47518         0.001092     -0.004537      0.002735
      6.68574      8.72193      8.53314         0.004460      0.000702     -0.001056
     10.89776     13.51186     10.06577         0.022877     -0.042759      0.028872
      9.39777     14.54634     12.40929         0.004754     -0.001546      0.000058
      6.97670      9.22985     11.30727        -0.007745     -0.003425     -0.003548
      9.00052     11.74720     11.53812        -0.000628      0.004360     -0.000331
     12.64787     15.38480      8.97098         0.001828      0.001094     -0.005135
      8.96836     10.04414      9.34882        -0.006953      0.001532      0.005425
      9.29612      8.34971      7.23705         0.007210      0.005680      0.003020
     13.16097     12.50006      8.38393        -0.001055     -0.003935      0.005630
     11.49607     10.86448     10.19399         0.002081      0.030806      0.010137
     15.30172     14.36607      8.89567        -0.002607      0.000521     -0.001775
      9.31475     12.47681     14.32991        -0.007008      0.003939      0.000806
      8.74225      7.23070      9.87031         0.001579      0.001125     -0.001074
     14.55054     16.26013     10.88037        -0.002842      0.003775     -0.005965
     11.52853     12.47306     12.58989        -0.000795     -0.019299     -0.015083
      6.46669     11.73575     12.53314        -0.013147     -0.004576     -0.002471
     11.80440     15.72724     11.71448         0.001011      0.014622     -0.005319
     13.63338     13.56289     11.08473        -0.016729     -0.002983      0.007175
     14.06918     15.25266     13.42924         0.003005      0.010104     -0.002838
     11.31452      8.23232      9.27076         0.004261     -0.009229      0.009393
      8.21013      9.86335     13.73306        -0.010535     -0.004294     -0.000438
     10.16052      9.07049     11.86750        -0.005263      0.004061      0.013205
     13.81415      9.80224      9.06891         0.005473     -0.002946      0.002356
     11.46839     14.64520     14.39361         0.005652      0.003587     -0.011208
     11.08922     10.23869     14.30527        -0.024530     -0.017581      0.022485
     16.31211     14.14455     11.64004        -0.000460      0.002036     -0.000023
      8.07894      7.03528     12.54945        -0.008098     -0.004844     -0.006811
     11.67449     12.35519     16.03722         0.006385      0.005082     -0.008041
     15.72399     11.84212      9.95133         0.005412      0.001919     -0.002210
     13.81328     12.29648     14.16300         0.011021      0.009425     -0.007190
     13.21882      8.11482     11.32263         0.010781      0.001430      0.014551
     13.72116     10.83352     11.81621         0.007230      0.011404     -0.007967
     10.92423      6.48167     11.77125         0.002964      0.007078      0.002153
      9.96756      7.67319     14.40538        -0.007016     -0.019771     -0.008229
     16.21249     13.81701     14.47055         0.002906      0.001996     -0.002914
     13.83371     14.26217     16.07004         0.001155      0.009561     -0.006728
     12.63620      7.89035     13.99970        -0.007053      0.003972      0.013258
     13.33229     10.01365     15.93109         0.004714      0.007639     -0.011267
     15.87314      9.24851     11.07808         0.012018      0.000495     -0.006737
     16.37344     11.56003     12.76239         0.010758     -0.000408     -0.003683
     15.87973     11.28532     15.63966         0.009374     -0.006047     -0.015777
     14.98496      9.31235     13.76897         0.002900     -0.007876     -0.007232
    total drift:                               -0.004205      0.143415      0.096002

  FREE ENERGIE OF THE ION-ELECTRON SYSTEM (eV)
  free  energy   TOTEN  =      -106.89164840 eV

  energy  without entropy=     -106.89164840  energy(sigma->0) =     -106.89164840

 d Force = 0.1419570E-03[ 0.146E-04, 0.269E-03]  d Energy = 0.2082098E-03-0.663E-04
 d Force =-0.3809896E+01[-0.381E+01,-0.381E+01]  d Ewald  =-0.3809898E+01 0.134E-05

 reached required accuracy - stopping structural energy minimisation